@relation training

@attribute LOC numeric
@attribute NumParameters numeric
@attribute NumBranches numeric
@attribute NestingDepth numeric
@attribute NumCodeSmells numeric
@attribute NumLocalVariables numeric
@attribute NumRevisions numeric
@attribute NumAuthors numeric
@attribute TotalStmtAdded numeric
@attribute TotalStmtDeleted numeric
@attribute MaxChurn numeric
@attribute AvgChurn numeric
@attribute HasFixHistory numeric
@attribute IsBuggy {no,yes}

@data
15,3,1,1,0,1,1,1,15,0,15,15,0,no
3,0,0,0,0,0,1,1,3,0,3,3,0,no
19,1,4,1,2,3,1,1,19,0,19,19,0,no
11,2,1,1,0,2,1,1,11,0,11,11,0,no
14,2,1,1,1,2,1,1,14,0,14,14,0,no
4,0,0,0,0,0,1,1,4,0,4,4,0,no
4,1,0,0,0,0,1,1,4,0,4,4,0,no
9,1,1,1,1,0,2,1,10,1,9,5.5,0,no
9,3,1,1,1,0,2,1,10,1,9,5.5,0,no
3,4,0,0,0,0,1,1,3,0,3,3,0,no
3,0,0,0,0,0,2,1,4,1,3,2.5,0,no
7,1,0,0,0,0,1,1,7,0,7,7,0,no
34,1,7,2,2,8,3,2,41,7,40,16,0,no
10,4,1,1,1,1,1,1,10,0,10,10,0,no
14,1,2,2,4,1,1,1,14,0,14,14,0,no
24,1,2,1,4,5,2,1,28,4,28,16,0,no
15,2,2,1,5,1,2,1,16,1,15,8.5,0,no
16,2,2,2,1,1,2,2,17,1,16,9,0,no
88,1,14,3,4,12,2,1,88,0,85,44,0,no
13,4,1,2,0,1,1,1,0,5,5,5,0,no
10,4,1,1,0,2,1,1,10,0,10,10,0,no
32,1,5,2,1,6,1,1,32,0,32,32,0,yes
14,1,1,2,0,3,1,1,14,0,14,14,0,no
3,2,0,0,1,0,0,0,0,0,0,0,0,no
6,1,0,0,0,1,1,1,6,0,6,6,0,yes
11,2,2,2,0,2,0,0,0,0,0,0,0,no
25,2,3,3,0,3,1,1,10,0,10,10,0,no
28,3,4,4,0,4,1,1,12,0,12,12,0,yes
3,0,0,0,0,0,1,1,3,0,3,3,0,no
9,2,1,1,0,2,1,1,9,0,9,9,0,yes
9,1,1,1,0,1,1,1,9,0,9,9,0,no
3,0,0,0,0,0,0,0,0,0,0,0,0,no
21,2,4,3,0,6,1,1,21,0,21,21,0,no
17,1,1,1,0,6,1,1,1,1,2,2,0,yes
25,2,5,3,0,1,1,1,25,0,25,25,0,yes
3,1,0,0,0,0,1,1,0,1,1,1,0,no
9,2,1,1,0,1,2,1,10,1,9,5.5,0,no
5,1,0,0,0,0,0,0,0,0,0,0,0,no
11,2,1,2,0,1,0,0,0,0,0,0,0,yes
10,4,0,1,0,1,1,1,10,0,10,10,0,no
11,1,2,1,0,0,1,1,11,0,11,11,0,no
65,0,11,6,1,9,4,3,19,2,15,5.25,0,no
16,0,3,1,1,1,3,3,5,1,4,2,0,no
6,1,1,1,1,0,1,1,6,0,6,6,0,no
18,1,5,3,0,0,1,1,13,0,13,13,0,no
3,0,0,0,0,0,0,0,0,0,0,0,0,no
5,0,1,1,0,0,0,0,0,0,0,0,0,no
6,5,1,1,0,0,0,0,0,0,0,0,0,no
0,1,0,0,1,0,1,1,0,0,0,0,0,no
4,2,0,0,0,0,0,0,0,0,0,0,0,no
3,0,0,0,0,0,0,0,0,0,0,0,0,no
23,0,4,4,2,7,1,1,1,1,2,2,0,no
20,0,3,2,2,5,1,1,3,0,3,3,0,no
4,2,0,0,0,0,0,0,0,0,0,0,0,no
5,0,0,0,0,1,1,1,5,0,5,5,0,no
5,2,0,0,0,0,0,0,0,0,0,0,0,no
3,0,0,0,0,0,0,0,0,0,0,0,0,no
3,0,0,0,0,0,0,0,0,0,0,0,0,no
3,1,0,0,0,0,0,0,0,0,0,0,0,no
3,0,0,0,0,0,0,0,0,0,0,0,0,no
7,5,0,0,0,0,0,0,0,0,0,0,0,no
7,1,1,1,0,0,1,1,7,0,7,7,0,no
52,0,10,4,1,5,3,2,27,2,25,9.666667,0,no
7,0,1,1,0,0,1,1,7,0,7,7,0,no
7,1,1,1,0,0,1,1,7,0,7,7,0,no
6,2,0,0,0,0,0,0,0,0,0,0,0,no
14,1,2,1,0,0,0,0,0,0,0,0,0,no
3,0,0,0,0,0,1,1,3,0,3,3,0,no
3,0,0,0,0,0,0,0,0,0,0,0,0,no
54,2,12,6,0,7,1,1,2,0,2,2,0,no
3,0,0,0,0,0,0,0,0,0,0,0,0,no
24,1,4,2,0,2,0,0,0,0,0,0,0,no
15,2,2,2,0,2,1,1,15,0,15,15,0,no
13,2,1,1,0,2,1,1,1,1,2,2,0,no
15,1,2,1,0,3,0,0,0,0,0,0,0,no
49,0,9,4,5,10,1,1,4,0,4,4,0,no
9,1,2,2,0,2,0,0,0,0,0,0,0,no
5,0,1,1,0,0,0,0,0,0,0,0,0,no
19,1,2,1,1,3,0,0,0,0,0,0,0,no
22,1,4,2,3,3,0,0,0,0,0,0,0,yes
3,0,0,0,0,0,0,0,0,0,0,0,0,no
39,3,6,1,2,11,0,0,0,0,0,0,0,no
14,2,1,2,2,2,0,0,0,0,0,0,0,no
10,0,1,1,0,0,2,1,6,1,5,3.5,0,no
7,0,0,1,0,0,0,0,0,0,0,0,0,no
3,0,0,0,0,0,0,0,0,0,0,0,0,no
30,0,7,4,2,5,1,1,30,0,30,30,0,no
12,0,1,1,0,0,1,1,12,0,12,12,0,no
17,0,3,2,0,0,4,2,9,75,73,21,0,no
7,1,1,1,0,0,1,1,7,0,7,7,0,no
12,1,1,1,0,1,1,1,4,0,4,4,0,no
6,0,1,1,0,0,0,0,0,0,0,0,0,yes
3,0,0,0,0,0,0,0,0,0,0,0,0,no
3,2,0,0,0,0,1,1,0,8,8,8,0,no
12,2,2,2,0,2,1,1,12,0,12,12,0,yes
18,0,3,1,1,4,1,1,18,0,18,18,0,no
10,0,2,2,0,0,1,1,1,1,2,2,0,yes
7,0,1,1,0,1,0,0,0,0,0,0,0,yes
3,0,0,0,0,0,0,0,0,0,0,0,0,no
19,2,3,3,0,3,0,0,0,0,0,0,0,yes
12,1,1,1,0,2,1,1,12,0,12,12,0,no
15,2,1,1,2,0,1,1,15,0,15,15,0,no
9,1,2,1,1,1,0,0,0,0,0,0,0,no
23,1,1,1,1,1,1,1,1,1,2,2,0,yes
95,1,20,5,1,18,1,1,1,1,2,2,0,yes
19,0,7,7,0,5,1,1,0,3,3,3,0,no
3,0,0,0,0,0,1,1,3,0,3,3,0,no
19,2,2,2,0,3,1,1,1,1,2,2,0,no
38,2,8,3,0,5,2,1,2,2,2,2,0,no
7,3,1,1,1,1,0,0,0,0,0,0,0,no
20,1,4,3,0,4,1,1,1,1,2,2,0,no
13,3,2,2,0,1,0,0,0,0,0,0,0,no
12,1,0,0,1,3,0,0,0,0,0,0,0,no
3,0,0,0,0,0,1,1,3,0,3,3,0,no
52,2,9,3,1,6,2,2,2,2,2,2,0,no
3,1,0,0,1,0,0,0,0,0,0,0,0,no
17,3,2,1,0,3,1,1,1,1,2,2,0,no
8,2,1,1,1,1,0,0,0,0,0,0,0,no
19,1,3,2,0,2,0,0,0,0,0,0,0,yes
26,5,7,2,0,4,1,1,1,1,2,2,0,no
3,2,0,0,0,0,0,0,0,0,0,0,0,no
5,3,0,0,0,0,0,0,0,0,0,0,0,no
11,1,1,1,0,3,0,0,0,0,0,0,0,no
2,0,0,0,1,0,0,0,0,0,0,0,0,no
3,1,0,0,0,0,0,0,0,0,0,0,0,no
3,0,0,0,0,0,0,0,0,0,0,0,0,no
3,0,0,0,0,0,1,1,3,0,3,3,0,no
3,0,0,0,0,0,0,0,0,0,0,0,0,no
3,0,0,0,0,0,0,0,0,0,0,0,0,no
3,0,0,0,0,0,1,1,3,0,3,3,0,no
39,1,8,6,0,8,1,1,1,1,2,2,0,yes
3,0,0,0,0,0,1,1,3,0,3,3,0,no
3,1,0,0,0,0,0,0,0,0,0,0,0,no
5,2,0,0,0,0,1,1,5,0,5,5,0,no
5,0,1,1,0,0,0,0,0,0,0,0,0,no
4,1,0,0,0,1,0,0,0,0,0,0,0,no
3,0,0,0,0,0,0,0,0,0,0,0,0,no
8,0,2,2,0,1,1,1,1,1,2,2,0,no
3,0,0,0,0,0,0,0,0,0,0,0,0,no
4,1,0,0,0,0,0,0,0,0,0,0,0,no
5,0,0,0,0,0,0,0,0,0,0,0,0,no
3,0,0,0,0,0,0,0,0,0,0,0,0,no
3,0,0,0,0,0,0,0,0,0,0,0,0,no
3,0,0,0,0,0,0,0,0,0,0,0,0,no
3,0,0,0,0,0,0,0,0,0,0,0,0,no
3,0,0,0,0,0,0,0,0,0,0,0,0,no
3,0,0,0,0,0,0,0,0,0,0,0,0,no
10,1,2,2,0,0,0,0,0,0,0,0,0,no
6,0,1,1,0,0,0,0,0,0,0,0,0,no
3,1,0,0,1,0,0,0,0,0,0,0,0,no
6,1,1,1,0,0,1,1,1,1,2,2,0,no
3,1,0,0,0,0,0,0,0,0,0,0,0,no
6,2,0,0,0,0,0,0,0,0,0,0,0,no
9,0,1,0,0,1,0,0,0,0,0,0,0,no
3,0,0,0,0,0,0,0,0,0,0,0,0,no
3,0,0,0,0,0,0,0,0,0,0,0,0,no
6,0,0,0,0,0,0,0,0,0,0,0,0,no
2,1,0,0,0,0,0,0,0,0,0,0,0,no
2,0,0,0,0,0,0,0,0,0,0,0,0,no
3,3,0,0,0,0,0,0,0,0,0,0,0,no
3,3,0,0,0,0,0,0,0,0,0,0,0,no
3,0,0,0,0,0,0,0,0,0,0,0,0,no
3,1,0,0,0,0,0,0,0,0,0,0,0,no
3,1,0,0,0,0,0,0,0,0,0,0,0,no
3,2,0,0,0,0,0,0,0,0,0,0,0,no
3,3,0,0,0,0,0,0,0,0,0,0,0,no
3,0,0,0,0,0,0,0,0,0,0,0,0,no
3,3,0,0,0,0,0,0,0,0,0,0,0,no
3,3,0,0,0,0,0,0,0,0,0,0,0,no
3,1,0,0,0,0,0,0,0,0,0,0,0,no
3,3,0,0,0,0,0,0,0,0,0,0,0,no
3,1,0,0,0,0,0,0,0,0,0,0,0,no
3,2,0,0,0,0,0,0,0,0,0,0,0,no
3,3,0,0,0,0,0,0,0,0,0,0,0,no
0,4,0,0,0,0,0,0,0,0,0,0,0,no
0,3,0,0,0,0,0,0,0,0,0,0,0,no
0,3,0,0,0,0,0,0,0,0,0,0,0,no
0,2,0,0,0,0,0,0,0,0,0,0,0,no
0,3,0,0,1,0,0,0,0,0,0,0,0,no
0,4,0,0,0,0,0,0,0,0,0,0,0,no
0,3,0,0,0,0,1,1,0,0,0,0,0,no
0,2,0,0,0,0,0,0,0,0,0,0,0,no
12,1,1,1,0,0,1,1,12,0,12,12,0,no
4,2,0,0,0,0,1,1,4,0,4,4,0,no
12,3,1,1,0,0,2,1,12,0,11,6,0,no
3,1,0,0,0,0,1,1,0,9,9,9,0,no
3,6,0,0,0,0,0,0,0,0,0,0,0,no
3,3,0,0,0,0,0,0,0,0,0,0,0,no
3,5,0,0,0,0,2,1,2,2,2,2,0,no
3,5,0,0,0,0,2,1,4,1,3,2.5,0,no
13,0,2,1,0,0,2,1,13,0,12,6.5,0,no
3,2,0,0,0,0,0,0,0,0,0,0,0,no
11,4,1,1,1,1,1,1,1,1,2,2,0,no
10,1,1,1,1,1,1,1,1,1,2,2,0,no
3,0,0,0,0,0,0,0,0,0,0,0,0,no
3,0,0,0,0,0,1,1,3,0,3,3,0,no
3,0,0,0,0,0,1,1,3,0,3,3,0,no
3,0,0,0,0,0,0,0,0,0,0,0,0,no
9,3,1,1,1,1,1,1,1,1,2,2,0,no
9,3,1,1,1,1,2,1,10,1,9,5.5,0,no
5,1,1,1,0,0,0,0,0,0,0,0,0,no
6,3,0,0,0,1,1,1,6,0,6,6,0,no
5,2,0,0,0,1,1,1,5,0,5,5,0,no
7,3,0,0,1,1,1,1,7,0,7,7,0,no
13,1,1,1,0,0,1,1,13,0,13,13,0,no
3,1,0,0,0,0,2,1,11,8,11,9.5,0,no
13,4,1,1,2,0,2,1,14,1,13,7.5,0,no
4,0,0,0,0,0,1,1,4,0,4,4,0,no
19,5,0,0,1,2,2,1,26,7,26,16.5,0,no
28,4,4,3,2,3,1,1,28,0,28,28,0,no
3,1,0,0,1,0,1,1,3,0,3,3,0,no
3,1,0,0,1,0,1,1,3,0,3,3,0,no
9,2,1,1,1,1,1,1,9,0,9,9,0,no
23,2,2,1,2,2,2,2,23,0,19,11.5,0,no
53,4,10,2,3,11,1,1,53,0,53,53,0,yes
25,6,6,2,1,7,2,2,26,1,25,13.5,0,yes
28,4,3,2,2,3,3,2,29,1,26,10,0,no
17,4,3,2,2,2,2,1,21,4,21,12.5,0,no
8,3,1,1,2,0,1,1,8,0,8,8,0,no
43,3,9,2,3,9,3,2,66,23,65,29.666667,0,yes
3,2,0,0,0,0,1,1,3,0,3,3,0,no
23,4,3,2,2,3,3,2,24,1,21,8.333333,0,no
10,5,2,2,1,0,2,2,10,0,8,5,0,no
9,2,0,0,2,1,2,2,9,0,8,4.5,0,no
5,1,1,1,0,0,1,1,5,0,5,5,0,no
3,1,0,0,0,0,1,1,3,0,3,3,0,no
3,3,0,0,0,0,1,1,3,0,3,3,0,no
7,5,0,0,0,0,1,1,7,0,7,7,0,no
12,3,1,1,1,2,1,1,12,0,12,12,0,yes
13,4,2,2,3,0,1,1,13,0,13,13,0,yes
4,0,0,0,0,0,2,2,4,0,3,2,0,no
4,1,0,0,0,0,0,0,0,0,0,0,0,no
3,1,0,0,0,0,0,0,0,0,0,0,0,no
22,2,4,2,1,3,0,0,0,0,0,0,0,no
3,1,0,0,1,0,0,0,0,0,0,0,0,no
3,0,0,0,0,0,0,0,0,0,0,0,0,no
3,1,0,0,0,0,0,0,0,0,0,0,0,no
20,4,3,2,1,3,0,0,0,0,0,0,0,no
3,0,0,0,0,0,0,0,0,0,0,0,0,no
3,1,0,0,0,0,0,0,0,0,0,0,0,no
18,0,2,1,0,2,0,0,0,0,0,0,0,no
9,4,1,1,0,0,0,0,0,0,0,0,0,no
3,0,0,0,0,0,0,0,0,0,0,0,0,no
3,1,0,0,0,0,0,0,0,0,0,0,0,no
3,0,0,0,0,0,0,0,0,0,0,0,0,no
7,0,0,0,0,2,0,0,0,0,0,0,0,no
3,3,0,0,0,0,0,0,0,0,0,0,0,no
4,1,0,0,0,0,0,0,0,0,0,0,0,no
17,6,0,0,0,3,1,1,17,0,17,17,0,no
0,0,0,0,0,0,0,0,0,0,0,0,0,no
0,0,0,0,0,0,0,0,0,0,0,0,0,no
10,3,3,1,0,0,0,0,0,0,0,0,0,no
3,1,0,0,0,0,0,0,0,0,0,0,0,no
0,3,0,0,0,0,0,0,0,0,0,0,0,no
3,1,0,0,0,0,0,0,0,0,0,0,0,no
3,2,0,0,0,0,0,0,0,0,0,0,0,no
24,3,4,2,2,6,0,0,0,0,0,0,0,no
5,2,0,0,0,0,0,0,0,0,0,0,0,no
8,1,0,0,1,3,0,0,0,0,0,0,0,yes
4,2,0,0,0,0,0,0,0,0,0,0,0,no
0,1,0,0,1,0,0,0,0,0,0,0,0,no
0,2,0,0,1,0,0,0,0,0,0,0,0,no
0,2,0,0,1,0,0,0,0,0,0,0,0,no
8,7,0,0,0,0,0,0,0,0,0,0,0,no
3,0,0,0,0,0,1,1,1,1,2,2,0,yes
36,2,5,1,6,2,1,1,36,0,36,36,0,yes
4,4,0,0,0,0,1,1,1,0,1,1,0,no
6,4,0,0,0,0,0,0,0,0,0,0,0,no
3,0,0,0,0,0,1,1,1,1,2,2,0,no
3,3,0,0,0,0,0,0,0,0,0,0,0,no
4,2,0,0,0,0,0,0,0,0,0,0,0,no
10,0,1,1,0,1,1,1,1,1,2,2,0,no
3,0,0,0,0,0,0,0,0,0,0,0,0,no
3,0,0,0,0,0,0,0,0,0,0,0,0,no
3,0,0,0,0,0,0,0,0,0,0,0,0,no
3,0,0,0,0,0,0,0,0,0,0,0,0,no
17,5,1,1,0,0,2,1,20,3,20,11.5,0,no
3,1,0,0,0,0,2,2,1,6,5,3.5,0,no
13,3,2,1,1,1,3,2,13,0,8,4.333333,0,no
4,1,0,0,0,0,0,0,0,0,0,0,0,no
3,3,0,0,0,0,1,1,0,26,26,26,0,no
4,5,0,0,1,1,3,2,37,33,33,23.333333,0,no
3,2,0,0,0,0,1,1,1,1,2,2,0,no
26,3,2,1,1,0,1,1,26,0,26,26,0,yes
11,4,2,1,0,0,0,0,0,0,0,0,0,no
3,2,0,0,0,0,1,1,3,0,3,3,0,yes
4,5,0,0,1,1,1,1,4,0,4,4,0,no
9,0,1,1,0,1,2,1,4,1,3,2.5,0,no
32,6,4,2,2,3,1,1,32,0,32,32,0,no
6,1,1,1,0,1,0,0,0,0,0,0,0,no
3,0,0,0,0,0,0,0,0,0,0,0,0,no
3,0,0,0,0,0,0,0,0,0,0,0,0,no
3,0,0,0,0,0,0,0,0,0,0,0,0,no
3,0,0,0,0,0,0,0,0,0,0,0,0,no
3,0,0,0,0,0,0,0,0,0,0,0,0,no
3,0,0,0,0,0,0,0,0,0,0,0,0,no
3,0,0,0,0,0,0,0,0,0,0,0,0,no
3,0,0,0,0,0,0,0,0,0,0,0,0,no
3,0,0,0,0,0,0,0,0,0,0,0,0,no
38,2,5,1,2,3,1,1,1,0,1,1,0,yes
3,1,0,0,0,0,1,1,1,1,2,2,0,yes
10,2,1,1,0,1,1,1,1,1,2,2,0,no
12,0,2,1,1,1,2,1,13,1,12,7,0,no
32,1,4,2,1,0,1,1,25,0,25,25,0,yes
18,1,2,1,1,0,2,1,19,1,18,10,0,yes
11,0,2,2,0,1,0,0,0,0,0,0,0,no
6,2,1,1,0,0,2,1,4,1,3,2.5,0,no
14,5,2,1,1,0,1,1,14,0,14,14,0,yes
21,0,2,1,1,0,2,2,2,2,2,2,0,yes
14,0,1,1,1,3,2,2,2,2,2,2,0,yes
9,4,1,1,1,0,1,1,2,0,2,2,0,no
16,4,2,1,1,1,2,1,5,0,4,2.5,0,yes
20,4,3,2,1,0,2,1,5,0,4,2.5,0,yes
7,2,1,1,0,0,1,1,7,0,7,7,0,no
11,0,2,1,1,1,1,1,1,0,1,1,0,no
3,0,0,0,0,0,1,1,3,0,3,3,0,no
3,0,0,0,0,0,1,1,3,0,3,3,0,no
3,0,0,0,0,0,1,1,3,0,3,3,0,no
3,0,0,0,1,0,1,1,3,0,3,3,0,yes
3,1,0,0,0,0,1,1,3,0,3,3,0,no
3,1,0,0,0,0,1,1,3,0,3,3,0,no
5,3,1,1,1,0,1,1,3,0,3,3,0,no
5,4,0,0,0,1,1,1,5,0,5,5,0,no
8,3,0,0,1,1,1,1,8,0,8,8,0,no
9,4,0,0,1,1,1,1,9,0,9,9,0,no
8,3,0,0,1,1,1,1,8,0,8,8,0,no
3,0,0,0,0,0,0,0,0,0,0,0,0,no
7,2,0,0,1,0,1,1,1,0,1,1,0,no
5,2,0,0,1,0,0,0,0,0,0,0,0,no
3,1,0,0,0,0,0,0,0,0,0,0,0,no
3,1,0,0,1,0,0,0,0,0,0,0,0,no
3,0,0,0,0,0,0,0,0,0,0,0,0,no
8,1,1,1,0,1,0,0,0,0,0,0,0,no
3,0,0,0,0,0,1,1,3,0,3,3,0,no
3,0,0,0,0,0,1,1,1,1,2,2,0,no
3,0,0,0,0,0,1,1,3,0,3,3,0,no
43,2,8,3,7,8,2,2,43,0,32,21.5,0,no
19,0,4,2,0,3,1,1,1,0,1,1,0,no
3,1,0,0,0,0,1,1,3,0,3,3,0,no
9,6,0,0,0,0,1,1,9,0,9,9,0,no
3,0,0,0,0,0,1,1,1,1,2,2,0,no
4,0,0,0,0,0,1,1,4,0,4,4,0,no
61,5,10,2,4,1,5,1,17,3,13,4,0,yes
7,2,1,1,0,0,0,0,0,0,0,0,0,yes
8,3,1,1,0,0,1,1,8,0,8,8,0,no
5,2,0,0,0,0,0,0,0,0,0,0,0,no
8,4,1,1,1,0,0,0,0,0,0,0,0,yes
4,0,0,0,0,0,0,0,0,0,0,0,0,no
6,0,1,1,0,2,2,1,2,1,2,1.5,0,yes
28,4,3,2,4,2,2,1,10,1,9,5.5,0,yes
32,5,6,2,2,3,0,0,0,0,0,0,0,no
9,3,1,1,2,0,1,1,9,0,9,9,0,no
7,2,0,0,0,2,0,0,0,0,0,0,0,no
6,2,0,0,0,1,0,0,0,0,0,0,0,no
3,0,0,0,0,0,0,0,0,0,0,0,0,no
3,0,0,0,0,0,0,0,0,0,0,0,0,no
3,3,0,0,0,0,0,0,0,0,0,0,0,no
9,5,0,0,0,0,0,0,0,0,0,0,0,no
3,0,0,0,0,0,0,0,0,0,0,0,0,no
18,0,3,2,1,4,0,0,0,0,0,0,0,no
7,3,0,0,2,2,0,0,0,0,0,0,0,no
3,0,0,0,0,0,0,0,0,0,0,0,0,no
26,5,5,1,1,2,0,0,0,0,0,0,0,yes
9,3,1,1,1,1,1,1,1,1,2,2,0,yes
3,0,0,0,0,0,0,0,0,0,0,0,0,no
3,1,0,0,2,0,0,0,0,0,0,0,0,no
7,3,0,0,0,0,1,1,7,0,7,7,0,no
5,0,1,1,0,1,2,1,6,1,5,3.5,0,yes
29,5,6,2,3,2,3,1,30,1,25,10.333333,0,yes
3,5,0,0,0,0,1,1,3,0,3,3,0,no
3,1,0,0,0,0,1,1,3,0,3,3,0,no
4,3,0,0,1,0,1,1,4,0,4,4,0,no
3,3,0,0,0,0,1,1,3,0,3,3,0,no
4,5,0,0,1,0,1,1,4,0,4,4,0,no
3,2,0,0,0,0,1,1,3,0,3,3,0,no
2,0,0,0,0,0,1,1,2,0,2,2,0,no
4,2,0,0,0,0,0,0,0,0,0,0,0,no
20,1,5,3,0,2,0,0,0,0,0,0,0,no
3,2,0,0,0,0,0,0,0,0,0,0,0,no
4,2,1,0,0,1,0,0,0,0,0,0,0,no
9,1,2,2,0,1,0,0,0,0,0,0,0,no
4,0,0,0,0,0,0,0,0,0,0,0,0,no
3,0,0,0,0,0,0,0,0,0,0,0,0,no
3,0,0,0,0,0,0,0,0,0,0,0,0,no
3,0,0,0,0,0,0,0,0,0,0,0,0,no
4,0,0,0,0,0,0,0,0,0,0,0,0,no
3,1,0,0,0,0,0,0,0,0,0,0,0,no
3,1,0,0,0,0,0,0,0,0,0,0,0,no
3,1,0,0,0,0,0,0,0,0,0,0,0,no
3,0,0,0,0,0,0,0,0,0,0,0,0,no
4,0,0,0,0,0,1,1,4,0,4,4,0,no
3,0,0,0,0,0,1,1,3,0,3,3,0,no
3,0,0,0,0,0,1,1,3,0,3,3,0,no
3,1,0,0,0,0,1,1,3,0,3,3,0,no
4,1,0,0,0,1,1,1,4,0,4,4,0,no
3,1,0,0,0,0,1,1,3,0,3,3,0,no
3,1,0,0,0,0,1,1,3,0,3,3,0,no
3,0,0,0,0,0,1,1,3,0,3,3,0,no
4,1,0,0,0,0,1,1,4,0,4,4,0,no
3,0,0,0,0,0,1,1,3,0,3,3,0,no
3,0,0,0,0,0,1,1,3,0,3,3,0,no
3,0,0,0,0,0,1,1,3,0,3,3,0,no
3,0,0,0,0,0,1,1,3,0,3,3,0,no
3,0,0,0,0,0,1,1,3,0,3,3,0,yes
3,0,0,0,0,0,1,1,3,0,3,3,0,no
4,1,0,0,0,0,2,1,5,1,4,3,0,no
4,1,0,0,0,0,2,1,5,1,4,3,0,no
4,1,0,0,0,0,2,1,5,1,4,3,0,no
4,1,0,0,0,0,2,1,5,1,4,3,0,no
4,1,0,0,0,0,2,1,5,1,4,3,0,no
4,1,0,0,0,0,3,1,6,2,4,2.666667,0,no
3,0,0,0,0,0,1,1,3,0,3,3,0,no
4,1,0,0,0,0,1,1,4,0,4,4,0,no
3,0,0,0,0,0,1,1,3,0,3,3,0,no
3,0,0,0,0,0,1,1,3,0,3,3,0,no
3,0,0,0,0,0,1,1,3,0,3,3,0,no
3,0,0,0,0,0,1,1,3,0,3,3,0,no
3,0,0,0,0,0,1,1,3,0,3,3,0,no
7,0,1,1,0,1,1,1,7,0,7,7,0,no
3,0,0,0,0,0,1,1,3,0,3,3,0,no
7,0,1,1,1,1,1,1,7,0,7,7,0,no
11,0,2,1,1,3,1,1,11,0,11,11,0,no
3,0,0,0,0,0,1,1,3,0,3,3,0,no
3,0,0,0,0,0,1,1,3,0,3,3,0,no
3,0,0,0,0,0,1,1,3,0,3,3,0,no
3,0,0,0,0,0,1,1,3,0,3,3,0,no
3,0,0,0,0,0,1,1,3,0,3,3,0,no
3,0,0,0,0,0,1,1,3,0,3,3,0,no
3,0,0,0,0,0,1,1,3,0,3,3,0,yes
3,0,0,0,0,0,1,1,3,0,3,3,0,no
4,1,0,0,0,0,2,1,5,1,4,3,0,no
4,1,0,0,0,0,2,1,5,1,4,3,0,no
4,1,0,0,0,0,2,1,5,1,4,3,0,no
4,1,0,0,0,0,2,1,5,1,4,3,0,no
4,1,0,0,0,0,2,1,5,1,4,3,0,no
7,1,1,1,0,0,2,1,8,1,7,4.5,0,no
4,1,0,0,0,0,2,1,5,1,4,3,0,no
4,1,0,0,0,0,2,1,5,1,4,3,0,no
4,1,0,0,0,0,2,1,5,1,4,3,0,no
4,1,0,0,0,0,2,1,5,1,4,3,0,no
4,1,0,0,0,0,3,1,6,2,4,2.666667,0,no
5,3,0,0,0,0,1,1,5,0,5,5,0,no
16,2,2,1,1,0,1,1,16,0,16,16,0,no
22,6,4,1,1,2,1,1,22,0,22,22,0,no
2,0,0,0,1,0,1,1,2,0,2,2,0,no
28,2,5,2,2,2,1,1,28,0,28,28,0,no
25,1,3,1,1,1,1,1,25,0,25,25,0,no
6,1,1,1,1,0,1,1,6,0,6,6,0,no
23,4,5,2,2,2,1,1,23,0,23,23,0,no
11,3,2,1,1,0,1,1,11,0,11,11,0,no
9,2,1,1,0,0,1,1,17,0,17,17,0,no
17,2,4,1,1,2,1,1,17,0,17,17,0,no
8,4,1,1,0,0,1,1,8,0,8,8,0,no
3,2,0,0,0,0,1,1,3,0,3,3,0,no
3,5,0,0,0,0,1,1,3,0,3,3,0,no
3,1,0,0,0,0,1,1,3,0,3,3,0,no
8,3,2,2,1,1,1,1,8,0,8,8,0,no
15,1,3,2,2,2,1,1,15,0,15,15,0,no
10,1,1,1,0,2,1,1,10,0,10,10,0,no
5,1,0,0,0,1,1,1,5,0,5,5,0,no
13,1,1,1,0,1,1,1,13,0,13,13,0,no
3,1,0,0,0,0,1,1,3,0,3,3,0,no
7,4,1,1,0,0,1,1,7,0,7,7,0,yes
12,4,2,1,0,0,1,1,12,0,12,12,0,no
3,2,0,0,0,0,1,1,3,0,3,3,0,no
19,5,1,1,0,2,1,1,19,0,19,19,0,no
24,6,2,1,2,1,1,1,24,0,24,24,0,no
8,0,1,1,0,0,1,1,8,0,8,8,0,no
3,1,0,0,0,0,1,1,3,0,3,3,0,no
8,3,2,2,1,1,1,1,8,0,8,8,0,no
14,3,1,1,0,6,1,1,14,0,14,14,0,no
20,1,5,4,1,4,1,1,20,0,20,20,0,no
3,2,0,0,0,0,1,1,3,0,3,3,0,no
12,1,2,1,0,2,1,1,11,0,11,11,0,no
11,1,2,2,0,2,1,1,11,0,11,11,0,no
10,1,1,1,0,2,1,1,10,0,10,10,0,no
6,1,0,0,0,2,1,1,6,0,6,6,0,no
3,2,0,0,0,0,1,1,3,0,3,3,0,no
49,1,5,2,3,3,1,1,49,0,49,49,0,no
3,1,0,0,0,0,1,1,3,0,3,3,0,no
19,3,2,1,2,1,1,1,19,0,19,19,0,no
9,4,1,1,1,1,1,1,9,0,9,9,0,no
14,2,1,1,0,2,1,1,14,0,14,14,0,no
4,2,0,0,0,1,1,1,4,0,4,4,0,no
44,4,5,2,3,3,1,1,44,0,44,44,0,yes
14,0,2,2,1,0,1,1,14,0,14,14,0,no
9,3,2,2,1,0,1,1,9,0,9,9,0,no
7,4,1,1,0,0,1,1,7,0,7,7,0,yes
3,1,0,0,0,0,1,1,3,0,3,3,0,no
32,6,3,1,2,7,1,1,32,0,32,32,0,no
19,3,2,1,1,3,1,1,19,0,19,19,0,no
3,0,0,0,1,0,1,1,3,0,3,3,0,no
4,2,0,0,0,0,1,1,4,0,4,4,0,no
10,1,2,1,1,1,1,1,10,0,10,10,0,no
3,0,0,0,0,0,1,1,3,0,3,3,0,no
3,0,0,0,0,0,1,1,3,0,3,3,0,no
25,1,5,2,2,6,1,1,25,0,25,25,0,no
15,2,2,2,0,3,1,1,15,0,15,15,0,no
8,0,1,1,0,1,1,1,8,0,8,8,0,no
4,2,0,0,0,1,1,1,4,0,4,4,0,no
5,0,0,0,0,1,1,1,5,0,5,5,0,no
0,2,0,0,1,0,1,1,0,0,0,0,0,no
0,5,0,0,1,0,1,1,0,0,0,0,0,no
0,0,0,0,1,0,1,1,0,0,0,0,0,no
0,1,0,0,1,0,1,1,0,0,0,0,0,no
0,1,0,0,1,0,1,1,0,0,0,0,0,no
0,1,0,0,1,0,1,1,0,0,0,0,0,no
0,1,0,0,1,0,1,1,0,0,0,0,0,no
0,1,0,0,1,0,1,1,0,0,0,0,0,no
0,1,0,0,1,0,1,1,0,0,0,0,0,no
0,1,0,0,1,0,1,1,0,0,0,0,0,no
37,2,10,3,1,4,1,1,37,0,37,37,0,no
5,3,0,0,0,0,1,1,5,0,5,5,0,no
13,8,1,1,0,1,1,1,13,0,13,13,0,no
5,0,1,1,0,1,0,0,0,0,0,0,0,no
11,1,2,2,0,2,2,1,2,2,2,2,0,yes
30,1,3,1,0,10,2,1,2,2,2,2,0,no
13,6,1,1,0,1,1,1,13,0,13,13,0,no
7,2,1,1,0,0,1,1,1,1,2,2,0,yes
7,2,1,1,0,0,1,1,1,1,2,2,0,yes
7,5,1,1,0,1,0,0,0,0,0,0,0,no
4,0,0,0,0,0,0,0,0,0,0,0,0,no
4,0,0,0,0,0,0,0,0,0,0,0,0,no
3,0,0,0,0,0,0,0,0,0,0,0,0,no
5,1,1,1,0,0,0,0,0,0,0,0,0,no
5,3,0,0,0,0,1,1,5,0,5,5,0,no
12,1,1,1,0,3,1,1,12,0,12,12,0,no
3,0,0,0,0,0,1,1,3,0,3,3,0,no
3,0,0,0,0,0,1,1,3,0,3,3,0,no
3,0,0,0,0,0,1,1,3,0,3,3,0,no
7,0,1,1,0,0,1,1,7,0,7,7,0,no
0,2,0,0,0,0,0,0,0,0,0,0,0,no
10,5,1,1,0,0,1,1,10,0,10,10,0,no
7,3,1,1,1,0,1,1,7,0,7,7,0,no
9,0,2,2,0,0,1,1,9,0,9,9,0,no
0,2,0,0,1,0,1,1,0,0,0,0,0,no
0,5,0,0,0,0,0,0,0,0,0,0,0,no
0,5,0,0,0,0,0,0,0,0,0,0,0,no
11,2,0,0,0,0,1,1,11,0,11,11,0,no
5,1,0,0,0,0,0,0,0,0,0,0,0,no
13,0,2,2,1,2,0,0,0,0,0,0,0,no
3,0,0,0,0,0,0,0,0,0,0,0,0,no
3,0,0,0,0,0,0,0,0,0,0,0,0,no
31,0,5,5,2,7,1,1,1,1,2,2,0,no
12,0,2,1,0,0,0,0,0,0,0,0,0,no
12,2,1,1,0,0,2,2,4,4,4,4,0,no
35,0,7,2,4,0,0,0,0,0,0,0,0,no
3,0,0,0,0,0,0,0,0,0,0,0,0,no
76,1,17,5,3,6,0,0,0,0,0,0,0,no
8,0,2,2,0,1,0,0,0,0,0,0,0,no
6,0,1,1,0,0,1,1,6,0,6,6,0,no
3,0,0,0,0,0,0,0,0,0,0,0,0,no
3,0,0,0,0,0,0,0,0,0,0,0,0,no
3,0,0,0,0,0,0,0,0,0,0,0,0,no
11,1,2,2,0,0,0,0,0,0,0,0,0,no
7,1,1,1,1,1,0,0,0,0,0,0,0,no
4,0,0,0,0,0,0,0,0,0,0,0,0,no
21,1,5,2,3,4,0,0,0,0,0,0,0,no
13,1,2,1,0,0,1,1,13,0,13,13,0,no
3,0,0,0,0,0,0,0,0,0,0,0,0,no
3,0,0,0,0,0,0,0,0,0,0,0,0,no
3,0,0,0,0,0,0,0,0,0,0,0,0,no
3,0,0,0,0,0,0,0,0,0,0,0,0,no
8,0,1,1,1,2,0,0,0,0,0,0,0,no
0,2,0,0,1,0,0,0,0,0,0,0,0,no
2,0,0,0,1,0,0,0,0,0,0,0,0,no
5,0,1,1,1,0,0,0,0,0,0,0,0,no
3,0,0,0,0,0,0,0,0,0,0,0,0,no
5,0,1,0,0,0,0,0,0,0,0,0,0,no
3,0,0,0,0,0,0,0,0,0,0,0,0,no
3,0,1,0,0,0,0,0,0,0,0,0,0,no
5,0,1,0,0,0,0,0,0,0,0,0,0,no
3,0,0,0,0,0,0,0,0,0,0,0,0,no
3,0,0,0,0,0,0,0,0,0,0,0,0,no
3,0,0,0,0,0,0,0,0,0,0,0,0,no
3,0,0,0,0,0,0,0,0,0,0,0,0,no
3,0,0,0,0,0,0,0,0,0,0,0,0,no
3,0,0,0,0,0,0,0,0,0,0,0,0,no
4,0,0,0,0,0,0,0,0,0,0,0,0,no
3,0,0,0,0,0,0,0,0,0,0,0,0,no
3,0,0,0,0,0,0,0,0,0,0,0,0,no
4,1,0,0,0,0,0,0,0,0,0,0,0,no
5,1,0,0,0,0,0,0,0,0,0,0,0,no
12,0,1,1,0,1,0,0,0,0,0,0,0,no
3,0,0,0,0,0,0,0,0,0,0,0,0,no
11,1,2,1,0,1,0,0,0,0,0,0,0,yes
0,0,0,0,1,0,0,0,0,0,0,0,0,no
0,0,0,0,1,0,0,0,0,0,0,0,0,no
8,1,0,0,0,0,0,0,0,0,0,0,0,no
8,2,0,0,0,0,0,0,0,0,0,0,0,no
2,0,0,0,0,0,0,0,0,0,0,0,0,no
11,0,2,1,1,2,0,0,0,0,0,0,0,no
14,1,2,1,0,3,0,0,0,0,0,0,0,no
14,3,2,1,0,3,0,0,0,0,0,0,0,no
23,0,4,2,0,3,0,0,0,0,0,0,0,no
5,1,0,0,0,0,0,0,0,0,0,0,0,no
5,2,0,0,0,0,0,0,0,0,0,0,0,no
3,0,0,0,0,0,0,0,0,0,0,0,0,no
15,0,3,2,2,1,0,0,0,0,0,0,0,no
10,1,2,2,0,0,0,0,0,0,0,0,0,no
14,1,3,2,0,0,0,0,0,0,0,0,0,no
7,3,1,1,0,0,0,0,0,0,0,0,0,no
5,1,0,0,0,1,0,0,0,0,0,0,0,no
25,1,4,2,0,6,1,1,1,1,2,2,0,no
3,0,0,0,0,0,1,1,0,3,3,3,0,no
5,1,0,0,1,0,0,0,0,0,0,0,0,no
14,0,3,1,2,0,1,1,1,1,2,2,0,yes
23,1,4,2,2,3,1,1,10,0,10,10,0,no
18,1,1,1,0,1,1,1,18,0,18,18,0,no
16,1,1,1,1,1,3,2,2,2,2,1.333333,0,no
3,0,0,0,0,0,0,0,0,0,0,0,0,no
38,2,6,4,2,8,0,0,0,0,0,0,0,yes
2,1,0,0,1,0,0,0,0,0,0,0,0,no
13,1,2,1,3,1,0,0,0,0,0,0,0,no
3,0,0,0,0,0,0,0,0,0,0,0,0,no
7,2,1,1,0,1,0,0,0,0,0,0,0,no
9,1,2,1,0,1,0,0,0,0,0,0,0,no
6,0,1,1,0,0,0,0,0,0,0,0,0,no
6,1,1,1,0,0,0,0,0,0,0,0,0,no
5,0,1,1,1,1,0,0,0,0,0,0,0,no
3,1,0,0,0,0,0,0,0,0,0,0,0,no
3,2,0,0,0,0,0,0,0,0,0,0,0,no
7,0,1,1,1,0,1,1,1,1,2,2,0,no
0,0,0,0,0,0,0,0,0,0,0,0,0,no
3,2,0,0,0,0,0,0,0,0,0,0,0,no
3,1,0,0,0,0,0,0,0,0,0,0,0,no
14,1,2,1,2,3,0,0,0,0,0,0,0,no
21,7,2,1,0,0,1,1,21,0,21,21,0,no
16,4,2,1,0,0,1,1,16,0,16,16,0,no
7,4,1,1,0,0,1,1,7,0,7,7,0,no
3,1,0,0,0,0,1,1,3,0,3,3,0,no
3,2,0,0,0,0,1,1,3,0,3,3,0,no
3,0,0,0,0,0,1,1,3,0,3,3,0,no
3,0,0,0,0,0,1,1,3,0,3,3,0,no
3,0,0,0,0,0,1,1,3,0,3,3,0,no
0,0,0,0,1,0,1,1,0,0,0,0,0,no
0,0,0,0,1,0,1,1,0,0,0,0,0,no
0,0,0,0,1,0,1,1,0,0,0,0,0,no
0,5,0,0,1,0,1,1,0,0,0,0,0,no
0,4,0,0,1,0,1,1,0,0,0,0,0,no
0,2,0,0,1,0,1,1,0,0,0,0,0,no
0,4,0,0,1,0,1,1,0,0,0,0,0,no
0,5,0,0,1,0,1,1,0,0,0,0,0,no
0,4,0,0,1,0,1,1,0,0,0,0,0,no
0,2,0,0,1,0,1,1,0,0,0,0,0,no
0,3,0,0,1,0,1,1,0,0,0,0,0,no
0,1,0,0,1,0,1,1,0,0,0,0,0,no
0,2,0,0,1,0,1,1,0,0,0,0,0,no
0,3,0,0,1,0,1,1,0,0,0,0,0,no
0,2,0,0,1,0,1,1,0,0,0,0,0,no
0,3,0,0,1,0,1,1,0,0,0,0,0,no
0,2,0,0,1,0,1,1,0,0,0,0,0,no
8,11,0,0,0,0,1,1,8,0,8,8,0,no
36,0,6,3,1,11,1,1,36,0,36,36,0,yes
9,1,1,1,1,4,1,1,9,0,9,9,0,no
19,1,2,1,0,5,2,2,20,1,19,10.5,0,yes
3,5,0,0,0,0,1,1,3,0,3,3,0,no
5,8,0,0,0,0,1,1,5,0,5,5,0,no
33,0,5,2,2,6,2,2,34,1,33,17.5,0,yes
10,1,3,2,1,1,1,1,10,0,10,10,0,no
14,5,3,2,1,4,1,1,14,0,14,14,0,yes
3,1,0,0,0,0,1,1,3,0,3,3,0,no
15,5,3,1,2,2,1,1,15,0,15,15,0,no
3,2,0,0,0,0,1,1,3,0,3,3,0,yes
5,1,0,0,0,0,1,1,5,0,5,5,0,no
5,1,0,0,0,0,1,1,5,0,5,5,0,yes
3,2,0,0,0,0,1,1,3,0,3,3,0,no
3,2,0,0,0,0,1,1,3,0,3,3,0,no
23,2,5,4,1,2,1,1,23,0,23,23,0,no
11,1,4,1,2,1,1,1,11,0,11,11,0,yes
3,1,0,0,0,0,1,1,3,0,3,3,0,no
12,0,3,3,0,2,1,1,12,0,12,12,0,no
9,3,1,1,0,1,1,1,9,0,9,9,0,no
11,1,2,2,0,3,1,1,11,0,11,11,0,no
10,1,1,1,0,1,1,1,10,0,10,10,0,no
4,1,0,0,0,1,1,1,4,0,4,4,0,no
14,6,2,1,0,0,1,1,14,0,14,14,0,no
5,1,0,0,0,0,1,1,5,0,5,5,0,no
3,3,0,0,0,0,1,1,3,0,3,3,0,no
29,0,3,3,3,15,1,1,29,0,29,29,0,no
15,1,2,2,0,3,1,1,15,0,15,15,0,no
3,0,0,0,0,0,1,1,3,0,3,3,0,no
5,0,1,1,1,0,1,1,5,0,5,5,0,no
6,0,1,1,2,0,1,1,6,0,6,6,0,no
3,0,0,0,0,0,1,1,3,0,3,3,0,no
3,0,0,0,0,0,1,1,3,0,3,3,0,no
3,0,0,0,0,0,1,1,3,0,3,3,0,no
3,0,0,0,0,0,1,1,3,0,3,3,0,no
3,0,0,0,0,0,1,1,3,0,3,3,0,no
3,0,0,0,0,0,1,1,3,0,3,3,0,no
3,0,0,0,0,0,1,1,3,0,3,3,0,no
3,0,0,0,0,0,1,1,3,0,3,3,0,no
3,0,0,0,0,0,1,1,3,0,3,3,0,no
5,0,1,1,0,0,1,1,5,0,5,5,0,no
5,3,0,0,0,0,1,1,5,0,5,5,0,no
10,0,3,1,3,1,1,1,10,0,10,10,0,no
9,7,0,0,0,0,1,1,9,0,9,9,0,no
8,0,3,1,3,0,1,1,8,0,8,8,0,no
38,0,13,2,10,4,1,1,38,0,38,38,0,no
5,2,0,0,0,0,1,1,5,0,5,5,0,no
8,1,2,1,2,1,1,1,8,0,8,8,0,no
3,0,0,0,0,0,1,1,3,0,3,3,0,no
3,0,0,0,0,0,1,1,3,0,3,3,0,no
3,0,0,0,0,0,1,1,3,0,3,3,0,no
8,0,2,1,2,1,1,1,8,0,8,8,0,no
3,1,0,0,0,0,1,1,3,0,3,3,0,no
3,2,0,0,0,0,1,1,3,0,3,3,0,no
3,1,0,0,0,0,1,1,3,0,3,3,0,no
3,2,0,0,0,0,1,1,3,0,3,3,0,no
3,1,0,0,0,0,1,1,3,0,3,3,0,no
3,2,0,0,0,0,1,1,3,0,3,3,0,no
3,1,0,0,0,0,1,1,3,0,3,3,0,no
6,2,0,0,1,2,1,1,6,0,6,6,0,no
6,2,0,0,0,3,2,2,7,1,6,4,0,no
4,2,0,0,0,0,1,1,4,0,4,4,0,no
4,0,0,0,0,1,2,2,5,1,4,3,0,no
3,1,0,0,0,0,1,1,3,0,3,3,0,no
3,0,0,0,0,0,1,1,3,0,3,3,0,no
3,0,0,0,0,0,1,1,3,0,3,3,0,no
10,2,1,1,2,0,1,1,10,0,10,10,0,no
9,2,1,1,2,0,1,1,9,0,9,9,0,no
3,1,0,0,0,0,1,1,3,0,3,3,0,no
19,3,5,1,2,0,2,2,20,1,19,10.5,0,no
7,3,0,0,0,0,1,1,7,0,7,7,0,no
4,2,0,0,1,0,1,1,4,0,4,4,0,no
12,2,3,2,2,0,1,1,12,0,12,12,0,yes
5,0,1,1,1,0,1,1,5,0,5,5,0,no
6,0,1,1,1,0,1,1,6,0,6,6,0,no
3,1,0,0,0,0,1,1,3,0,3,3,0,no
12,1,3,2,2,1,2,2,13,1,12,7,0,no
3,0,0,0,0,0,1,1,3,0,3,3,0,no
3,0,0,0,0,0,1,1,3,0,3,3,0,no
16,1,4,2,3,1,2,2,17,1,16,9,0,yes
32,3,7,1,2,1,3,2,34,2,32,12,0,yes
21,1,6,2,4,0,1,1,21,0,21,21,0,no
15,1,4,2,2,1,2,2,15,0,13,7.5,0,yes
3,1,0,0,0,0,1,1,3,0,3,3,0,no
23,3,6,1,2,0,2,2,24,1,23,12.5,0,no
3,1,0,0,0,0,1,1,3,0,3,3,0,no
12,0,1,1,0,1,1,1,12,0,12,12,0,no
9,3,0,0,0,0,1,1,9,0,9,9,0,no
31,1,8,3,5,1,2,2,32,1,31,16.5,0,no
4,1,0,0,0,0,1,1,4,0,4,4,0,no
12,2,1,1,0,0,1,1,12,0,12,12,0,no
12,1,4,3,2,1,1,1,12,0,12,12,0,no
21,0,3,1,0,2,1,1,21,0,21,21,0,no
3,1,0,0,0,0,1,1,3,0,3,3,0,no
3,2,0,0,0,0,1,1,3,0,3,3,0,no
10,2,1,1,1,2,1,1,10,0,10,10,0,no
3,0,0,0,0,0,1,1,3,0,3,3,0,no
3,0,0,0,0,0,1,1,3,0,3,3,0,no
3,0,0,0,0,0,1,1,3,0,3,3,0,no
3,1,0,0,0,0,1,1,3,0,3,3,0,no
3,1,0,0,0,0,1,1,3,0,3,3,0,no
3,0,0,0,0,0,1,1,3,0,3,3,0,no
3,1,0,0,0,0,1,1,3,0,3,3,0,no
3,0,0,0,0,0,1,1,3,0,3,3,0,no
3,0,0,0,0,0,1,1,3,0,3,3,0,no
3,0,0,0,0,0,1,1,3,0,3,3,0,no
3,1,0,0,0,0,1,1,3,0,3,3,0,no
16,2,3,1,1,2,1,1,16,0,16,16,0,no
7,4,1,1,1,0,1,1,7,0,7,7,0,no
18,0,5,2,1,8,1,1,18,0,18,18,0,yes
4,1,0,0,0,0,1,1,4,0,4,4,0,no
20,4,4,2,1,3,2,1,20,0,15,10,0,no
22,2,2,1,1,4,2,2,23,1,22,12,0,yes
3,1,0,0,0,0,1,1,3,0,3,3,0,no
29,2,7,4,4,3,1,1,29,0,29,29,0,no
13,1,3,2,2,1,2,2,14,1,13,7.5,0,no
4,1,0,0,0,0,1,1,4,0,4,4,0,no
25,4,3,2,3,3,2,2,26,1,25,13.5,0,no
15,6,3,2,1,2,1,1,15,0,15,15,0,no
3,5,0,0,0,0,1,1,3,0,3,3,0,no
7,6,1,1,0,0,1,1,7,0,7,7,0,no
3,4,0,0,0,0,1,1,3,0,3,3,0,no
16,5,1,1,0,0,1,1,16,0,16,16,0,no
15,2,3,2,2,2,1,1,15,0,15,15,0,no
10,3,2,1,1,2,1,1,10,0,10,10,0,no
23,3,2,1,2,4,2,2,24,1,23,12.5,0,no
30,2,3,1,1,5,2,2,31,1,30,16,0,yes
3,1,0,0,0,0,1,1,3,0,3,3,0,no
3,1,0,0,1,0,1,1,3,0,3,3,0,no
3,2,0,0,0,0,1,1,3,0,3,3,0,no
6,2,1,1,5,0,1,1,6,0,6,6,0,no
3,1,0,0,0,0,1,1,3,0,3,3,0,no
3,2,0,0,0,0,1,1,3,0,3,3,0,no
20,3,3,1,3,3,2,2,21,1,20,11,0,yes
20,2,3,1,3,3,2,2,21,1,20,11,0,yes
33,4,9,6,8,3,1,1,33,0,33,33,0,no
3,3,0,0,0,0,1,1,3,0,3,3,0,no
11,4,2,1,1,0,1,1,11,0,11,11,0,no
3,2,0,0,0,0,1,1,3,0,3,3,0,no
12,3,2,1,1,0,1,1,12,0,12,12,0,no
3,2,0,0,0,0,1,1,3,0,3,3,0,no
3,2,0,0,0,0,1,1,3,0,3,3,0,no
5,1,1,1,1,0,1,1,8,0,8,8,0,no
5,1,1,1,1,0,1,1,8,0,8,8,0,no
5,1,1,1,1,0,1,1,8,0,8,8,0,no
8,1,1,1,1,0,1,1,8,0,8,8,0,no
9,1,0,0,0,0,1,1,9,0,9,9,0,no
8,2,2,2,0,0,1,1,8,0,8,8,0,no
32,2,8,3,6,3,2,2,33,1,32,17,0,yes
4,2,0,0,1,0,2,2,5,1,4,3,0,no
3,0,0,0,0,0,1,1,3,0,3,3,0,no
3,0,0,0,0,0,1,1,3,0,3,3,0,no
3,0,0,0,0,0,1,1,3,0,3,3,0,no
3,0,0,0,0,0,1,1,3,0,3,3,0,no
42,3,12,3,5,5,2,2,43,1,42,22,0,no
34,2,10,1,4,2,2,2,35,1,34,18,0,no
6,2,0,0,0,0,1,1,6,0,6,6,0,no
24,1,7,3,5,2,2,2,25,1,24,13,0,no
8,1,1,1,1,0,1,1,8,0,8,8,0,no
3,0,0,0,0,0,1,1,3,0,3,3,0,no
3,0,0,0,0,0,1,1,3,0,3,3,0,no
5,0,0,0,0,1,1,1,5,0,5,5,0,no
14,0,0,0,0,0,1,1,14,0,14,14,0,no
0,0,0,0,0,0,1,1,0,0,0,0,0,no
2,2,0,0,0,0,1,1,2,0,2,2,0,no
2,2,0,0,0,0,1,1,2,0,2,2,0,no
3,0,0,0,0,0,1,1,3,0,3,3,0,no
3,0,0,0,0,0,1,1,3,0,3,3,0,no
3,0,0,0,0,0,1,1,3,0,3,3,0,no
4,1,0,0,0,1,1,1,4,0,4,4,0,no
0,2,0,0,1,0,1,1,0,0,0,0,0,no
0,2,0,0,1,0,1,1,0,0,0,0,0,no
12,2,0,0,0,0,1,1,12,0,12,12,0,no
3,3,0,0,0,0,1,1,3,0,3,3,0,no
16,4,2,1,2,0,1,1,16,0,16,16,0,no
3,3,0,0,0,0,2,2,4,1,3,2.5,0,no
33,7,5,3,2,2,1,1,33,0,33,33,0,no
3,4,0,0,0,0,1,1,3,0,3,3,0,no
3,0,0,0,0,0,1,1,3,0,3,3,0,no
2,2,0,0,1,0,1,1,2,0,2,2,0,no
2,2,0,0,1,0,1,1,2,0,2,2,0,no
5,2,1,1,1,0,1,1,5,0,5,5,0,no
5,2,1,1,1,0,1,1,5,0,5,5,0,no
3,2,0,0,0,0,1,1,3,0,3,3,0,no
3,2,0,0,0,0,1,1,3,0,3,3,0,no
6,2,1,1,1,0,1,1,6,0,6,6,0,no
5,2,1,1,1,0,1,1,5,0,5,5,0,no
9,0,2,2,0,0,1,1,9,0,9,9,0,no
7,1,1,1,0,0,1,1,7,0,7,7,0,no
7,2,1,1,0,0,1,1,7,0,7,7,0,no
7,1,1,1,0,0,1,1,7,0,7,7,0,no
4,2,0,0,0,0,1,1,4,0,4,4,0,no
3,0,0,0,0,0,1,1,3,0,3,3,0,no
3,1,0,0,0,0,1,1,3,0,3,3,0,no
3,2,0,0,0,0,1,1,3,0,3,3,0,no
3,0,0,0,0,0,1,1,3,0,3,3,0,no
3,1,0,0,0,0,1,1,3,0,3,3,0,no
3,1,0,0,0,0,1,1,3,0,3,3,0,no
11,2,2,1,0,1,1,1,11,0,11,11,0,no
3,1,0,0,0,0,1,1,3,0,3,3,0,no
18,1,5,2,2,2,1,1,18,0,18,18,0,no
7,0,1,1,0,1,1,1,7,0,7,7,0,no
14,1,2,1,4,1,1,1,14,0,14,14,0,no
3,2,0,0,0,0,1,1,3,0,3,3,0,no
10,3,1,1,2,0,1,1,10,0,10,10,0,no
6,1,1,1,5,1,1,1,6,0,6,6,0,no
3,0,0,0,0,0,1,1,3,0,3,3,0,no
3,0,0,0,0,0,1,1,3,0,3,3,0,no
3,0,0,0,0,0,1,1,3,0,3,3,0,no
3,0,0,0,0,0,1,1,3,0,3,3,0,no
3,0,0,0,0,0,1,1,3,0,3,3,0,no
3,0,0,0,0,0,1,1,3,0,3,3,0,no
3,1,0,0,0,0,1,1,3,0,3,3,0,no
5,0,0,0,0,1,1,1,5,0,5,5,0,no
2,0,0,0,1,0,1,1,2,0,2,2,0,no
3,1,0,0,0,0,1,1,3,0,3,3,0,no
3,0,0,0,0,0,1,1,3,0,3,3,0,no
3,0,0,0,0,0,1,1,3,0,3,3,0,no
3,1,0,0,0,0,1,1,3,0,3,3,0,no
4,2,0,0,0,0,1,1,4,0,4,4,0,no
3,0,0,0,0,0,1,1,3,0,3,3,0,no
3,2,0,0,0,0,1,1,3,0,3,3,0,no
3,0,0,0,0,0,1,1,3,0,3,3,0,no
8,2,3,2,4,3,1,1,8,0,8,8,0,no
3,1,0,0,0,0,1,1,3,0,3,3,0,no
11,1,2,2,1,3,1,1,11,0,11,11,0,yes
4,2,0,0,0,0,1,1,4,0,4,4,0,no
4,2,0,0,0,0,1,1,4,0,4,4,0,no
25,2,8,8,0,0,1,1,25,0,25,25,0,yes
3,0,0,0,0,0,1,1,3,0,3,3,0,no
3,1,0,0,0,0,1,1,3,0,3,3,0,no
3,1,0,0,0,0,1,1,3,0,3,3,0,no
4,1,0,0,0,0,1,1,4,0,4,4,0,no
3,0,0,0,0,0,1,1,3,0,3,3,0,no
6,0,1,1,1,2,1,1,6,0,6,6,0,no
3,1,0,0,0,0,1,1,3,0,3,3,0,no
3,1,0,0,0,0,1,1,3,0,3,3,0,no
3,1,0,0,0,0,1,1,3,0,3,3,0,no
3,1,0,0,0,0,1,1,3,0,3,3,0,no
3,1,0,0,0,0,1,1,3,0,3,3,0,no
3,1,0,0,0,0,1,1,3,0,3,3,0,no
3,1,0,0,0,0,1,1,3,0,3,3,0,no
3,1,0,0,0,0,1,1,3,0,3,3,0,no
3,1,0,0,0,0,1,1,3,0,3,3,0,no
2,0,0,0,0,0,1,1,2,0,2,2,0,no
3,0,0,0,0,0,1,1,3,0,3,3,0,no
2,0,0,0,1,0,1,1,2,0,2,2,0,no
2,1,0,0,1,0,1,1,2,0,2,2,0,no
32,1,0,0,42,0,1,1,32,0,32,32,0,no
3,0,0,0,0,0,1,1,3,0,3,3,0,no
2,1,0,0,1,0,1,1,2,0,2,2,0,no
3,0,0,0,0,0,1,1,3,0,3,3,0,no
3,0,0,0,0,0,1,1,3,0,3,3,0,no
3,0,0,0,2,0,1,1,3,0,3,3,0,no
3,0,0,0,1,0,1,1,3,0,3,3,0,no
15,0,3,1,1,1,1,1,15,0,15,15,0,no
3,0,0,0,0,0,1,1,3,0,3,3,0,no
3,0,0,0,0,0,1,1,3,0,3,3,0,no
3,0,0,0,0,0,1,1,3,0,3,3,0,no
3,0,0,0,1,0,1,1,3,0,3,3,0,no
3,0,0,0,1,0,1,1,3,0,3,3,0,no
9,0,3,1,5,0,1,1,9,0,9,9,0,no
3,0,0,0,0,0,1,1,3,0,3,3,0,no
3,1,0,0,1,0,1,1,3,0,3,3,0,no
3,0,0,0,0,0,1,1,3,0,3,3,0,no
8,1,1,1,1,1,1,1,8,0,8,8,0,no
8,2,1,1,1,1,1,1,8,0,8,8,0,no
3,1,0,0,1,0,1,1,3,0,3,3,0,no
3,2,0,0,1,0,1,1,3,0,3,3,0,no
3,1,0,0,1,0,1,1,3,0,3,3,0,no
3,2,0,0,1,0,1,1,3,0,3,3,0,no
3,1,0,0,1,0,1,1,3,0,3,3,0,no
3,2,0,0,1,0,1,1,3,0,3,3,0,no
3,1,0,0,1,0,1,1,3,0,3,3,0,no
3,2,0,0,1,0,1,1,3,0,3,3,0,no
3,0,0,0,0,0,1,1,3,0,3,3,0,no
10,1,2,1,0,0,1,1,10,0,10,10,0,no
2,0,0,0,0,0,1,1,2,0,2,2,0,no
6,0,1,1,1,0,1,1,6,0,6,6,0,no
6,0,1,1,1,0,1,1,6,0,6,6,0,no
8,0,1,1,2,1,1,1,8,0,8,8,0,no
7,0,1,1,1,0,1,1,7,0,7,7,0,no
5,0,0,0,1,0,1,1,5,0,5,5,0,no
5,0,0,0,0,0,1,1,5,0,5,5,0,no
3,0,0,0,1,0,1,1,3,0,3,3,0,no
5,0,0,0,1,1,1,1,5,0,5,5,0,no
3,0,0,0,2,0,1,1,3,0,3,3,0,no
3,0,0,0,1,0,1,1,3,0,3,3,0,no
3,0,0,0,1,0,1,1,3,0,3,3,0,no
3,0,0,0,0,0,1,1,3,0,3,3,0,no
3,0,0,0,0,0,1,1,3,0,3,3,0,no
3,0,0,0,0,0,1,1,3,0,3,3,0,no
3,0,0,0,1,0,1,1,3,0,3,3,0,no
3,0,0,0,0,0,1,1,3,0,3,3,0,no
34,2,7,3,3,3,1,1,34,0,34,34,0,no
8,1,1,1,2,0,1,1,8,0,8,8,0,no
12,1,3,1,3,0,1,1,12,0,12,12,0,no
9,1,1,1,3,0,1,1,9,0,9,9,0,no
8,1,1,1,1,0,1,1,8,0,8,8,0,no
5,1,0,0,1,0,1,1,5,0,5,5,0,no
8,1,1,1,0,0,1,1,8,0,8,8,0,no
3,0,0,0,0,0,1,1,3,0,3,3,0,no
2,1,0,0,1,0,1,1,2,0,2,2,0,no
3,0,0,0,0,0,1,1,3,0,3,3,0,no
3,0,0,0,0,0,1,1,3,0,3,3,0,no
3,0,0,0,2,0,1,1,3,0,3,3,0,no
3,0,0,0,1,0,1,1,3,0,3,3,0,no
3,0,0,0,0,0,1,1,3,0,3,3,0,no
15,0,3,1,1,1,1,1,15,0,15,15,0,no
3,0,0,0,0,0,1,1,3,0,3,3,0,no
3,0,0,0,0,0,1,1,3,0,3,3,0,no
3,0,0,0,1,0,1,1,3,0,3,3,0,no
3,0,0,0,1,0,1,1,3,0,3,3,0,no
9,0,3,2,3,0,1,1,9,0,9,9,0,no
3,0,0,0,0,0,1,1,3,0,3,3,0,no
3,1,0,0,1,0,1,1,3,0,3,3,0,no
3,0,0,0,0,0,1,1,3,0,3,3,0,no
8,1,1,1,1,1,1,1,8,0,8,8,0,no
8,2,1,1,1,1,1,1,8,0,8,8,0,no
3,1,0,0,1,0,1,1,3,0,3,3,0,no
3,2,0,0,1,0,1,1,3,0,3,3,0,no
3,1,0,0,1,0,1,1,3,0,3,3,0,no
3,2,0,0,1,0,1,1,3,0,3,3,0,no
3,1,0,0,1,0,1,1,3,0,3,3,0,no
3,2,0,0,1,0,1,1,3,0,3,3,0,no
3,1,0,0,1,0,1,1,3,0,3,3,0,no
3,2,0,0,1,0,1,1,3,0,3,3,0,no
3,0,0,0,0,0,1,1,3,0,3,3,0,no
10,1,2,1,0,0,1,1,10,0,10,10,0,no
2,0,0,0,0,0,1,1,2,0,2,2,0,no
6,0,1,1,1,0,1,1,6,0,6,6,0,no
6,0,1,1,1,0,1,1,6,0,6,6,0,no
8,0,1,1,2,1,1,1,8,0,8,8,0,no
7,0,1,1,1,0,1,1,7,0,7,7,0,no
5,0,0,0,1,0,1,1,5,0,5,5,0,no
5,0,0,0,0,0,1,1,5,0,5,5,0,no
3,0,0,0,1,0,1,1,3,0,3,3,0,no
5,0,0,0,1,1,1,1,5,0,5,5,0,no
3,0,0,0,2,0,1,1,3,0,3,3,0,no
3,0,0,0,1,0,1,1,3,0,3,3,0,no
3,0,0,0,1,0,1,1,3,0,3,3,0,no
3,0,0,0,0,0,1,1,3,0,3,3,0,no
3,0,0,0,0,0,1,1,3,0,3,3,0,no
3,0,0,0,0,0,1,1,3,0,3,3,0,no
3,0,0,0,1,0,1,1,3,0,3,3,0,no
3,0,0,0,0,0,1,1,3,0,3,3,0,no
9,1,1,1,3,0,1,1,9,0,9,9,0,no
34,2,7,3,3,3,1,1,34,0,34,34,0,no
8,1,1,1,2,0,1,1,8,0,8,8,0,no
12,1,3,1,3,0,1,1,12,0,12,12,0,no
8,1,1,1,1,0,1,1,8,0,8,8,0,no
5,1,0,0,1,0,1,1,5,0,5,5,0,no
5,1,0,0,0,0,1,1,5,0,5,5,0,no
3,0,0,0,0,0,1,1,3,0,3,3,0,no
2,1,0,0,1,0,1,1,2,0,2,2,0,no
3,0,0,0,0,0,1,1,3,0,3,3,0,no
3,0,0,0,0,0,1,1,3,0,3,3,0,no
3,0,0,0,2,0,1,1,3,0,3,3,0,no
3,1,0,0,1,0,1,1,3,0,3,3,0,no
3,0,0,0,0,0,1,1,3,0,3,3,0,no
3,0,0,0,1,0,1,1,3,0,3,3,0,no
12,0,2,1,2,2,1,1,12,0,12,12,0,no
2,0,0,0,1,0,1,1,2,0,2,2,0,no
3,0,0,0,1,0,1,1,3,0,3,3,0,no
7,0,2,2,3,1,1,1,7,0,7,7,0,no
3,0,0,0,0,0,1,1,3,0,3,3,0,no
3,1,0,0,1,0,1,1,3,0,3,3,0,no
3,0,0,0,0,0,1,1,3,0,3,3,0,no
8,1,1,1,1,1,1,1,8,0,8,8,0,no
8,2,1,1,1,1,1,1,8,0,8,8,0,no
3,1,0,0,1,0,1,1,3,0,3,3,0,no
3,2,0,0,1,0,1,1,3,0,3,3,0,no
3,1,0,0,1,0,1,1,3,0,3,3,0,no
3,2,0,0,1,0,1,1,3,0,3,3,0,no
3,1,0,0,1,0,1,1,3,0,3,3,0,no
3,2,0,0,1,0,1,1,3,0,3,3,0,no
3,1,0,0,1,0,1,1,3,0,3,3,0,no
3,2,0,0,1,0,1,1,3,0,3,3,0,no
3,0,0,0,0,0,1,1,3,0,3,3,0,no
7,1,1,1,1,1,1,1,7,0,7,7,0,no
2,0,0,0,0,0,1,1,2,0,2,2,0,no
7,1,1,1,3,0,1,1,7,0,7,7,0,no
10,1,2,1,2,0,1,1,10,0,10,10,0,no
7,1,1,1,2,0,1,1,7,0,7,7,0,no
6,0,1,1,1,0,1,1,6,0,6,6,0,no
6,0,1,1,1,0,1,1,6,0,6,6,0,no
11,0,2,1,3,1,1,1,11,0,11,11,0,no
7,0,1,1,1,0,1,1,7,0,7,7,0,no
4,0,0,0,0,0,1,1,4,0,4,4,0,no
3,0,0,0,1,0,1,1,3,0,3,3,0,no
5,0,0,0,1,1,1,1,5,0,5,5,0,no
3,0,0,0,2,0,1,1,3,0,3,3,0,no
3,0,0,0,1,0,1,1,3,0,3,3,0,no
3,1,0,0,1,0,1,1,3,0,3,3,0,no
3,0,0,0,0,0,1,1,3,0,3,3,0,no
3,0,0,0,1,0,1,1,3,0,3,3,0,no
3,0,0,0,1,0,1,1,3,0,3,3,0,no
3,0,0,0,0,0,1,1,3,0,3,3,0,no
26,2,5,3,3,3,1,1,26,0,26,26,0,no
8,1,1,1,2,0,1,1,8,0,8,8,0,no
12,1,3,2,4,0,1,1,12,0,12,12,0,no
7,2,1,1,1,0,1,1,7,0,7,7,0,no
4,2,0,0,1,0,1,1,4,0,4,4,0,no
3,0,0,0,0,0,1,1,3,0,3,3,0,no
2,1,0,0,1,0,1,1,2,0,2,2,0,no
3,0,0,0,0,0,1,1,3,0,3,3,0,no
3,0,0,0,0,0,1,1,3,0,3,3,0,no
3,0,0,0,0,0,1,1,3,0,3,3,0,no
3,0,0,0,2,0,1,1,3,0,3,3,0,no
3,0,0,0,1,0,1,1,3,0,3,3,0,no
18,0,4,1,1,1,1,1,18,0,18,18,0,no
3,0,0,0,0,0,1,1,3,0,3,3,0,no
3,0,0,0,0,0,1,1,3,0,3,3,0,no
3,0,0,0,0,0,1,1,3,0,3,3,0,no
3,0,0,0,0,0,1,1,3,0,3,3,0,no
3,0,0,0,1,0,1,1,3,0,3,3,0,no
3,0,0,0,1,0,1,1,3,0,3,3,0,no
9,0,3,2,3,0,1,1,9,0,9,9,0,no
3,0,0,0,0,0,1,1,3,0,3,3,0,no
3,1,0,0,1,0,1,1,3,0,3,3,0,no
3,0,0,0,0,0,1,1,3,0,3,3,0,no
8,1,1,1,1,1,1,1,8,0,8,8,0,no
8,2,1,1,1,1,1,1,8,0,8,8,0,no
3,1,0,0,1,0,1,1,3,0,3,3,0,no
3,2,0,0,1,0,1,1,3,0,3,3,0,no
3,1,0,0,1,0,1,1,3,0,3,3,0,no
3,2,0,0,1,0,1,1,3,0,3,3,0,no
3,1,0,0,1,0,1,1,3,0,3,3,0,no
3,2,0,0,1,0,1,1,3,0,3,3,0,no
3,1,0,0,1,0,1,1,3,0,3,3,0,no
3,2,0,0,1,0,1,1,3,0,3,3,0,no
3,0,0,0,0,0,1,1,3,0,3,3,0,no
13,1,3,1,0,0,1,1,13,0,13,13,0,no
2,0,0,0,0,0,1,1,2,0,2,2,0,no
6,0,1,1,1,0,1,1,6,0,6,6,0,no
6,0,1,1,1,0,1,1,6,0,6,6,0,no
8,0,1,1,2,1,1,1,8,0,8,8,0,no
7,0,1,1,1,0,1,1,7,0,7,7,0,no
5,0,0,0,0,0,1,1,5,0,5,5,0,no
5,0,0,0,1,0,1,1,5,0,5,5,0,no
5,0,0,0,0,0,1,1,5,0,5,5,0,no
3,0,0,0,1,0,1,1,3,0,3,3,0,no
5,0,0,0,1,1,1,1,5,0,5,5,0,no
3,0,0,0,0,0,1,1,3,0,3,3,0,no
3,0,0,0,2,0,1,1,3,0,3,3,0,no
3,0,0,0,1,0,1,1,3,0,3,3,0,no
3,0,0,0,1,0,1,1,3,0,3,3,0,no
3,0,0,0,0,0,1,1,3,0,3,3,0,no
3,0,0,0,0,0,1,1,3,0,3,3,0,no
3,0,0,0,0,0,1,1,3,0,3,3,0,no
3,0,0,0,0,0,1,1,3,0,3,3,0,no
3,0,0,0,1,0,1,1,3,0,3,3,0,no
3,0,0,0,0,0,1,1,3,0,3,3,0,no
39,2,8,3,3,3,1,1,39,0,39,39,0,no
8,1,1,1,2,0,1,1,8,0,8,8,0,no
15,1,4,1,3,0,1,1,15,0,15,15,0,no
9,1,1,1,3,0,1,1,9,0,9,9,0,no
8,1,1,1,0,0,1,1,8,0,8,8,0,no
8,1,1,1,1,0,1,1,8,0,8,8,0,no
5,1,0,0,1,0,1,1,5,0,5,5,0,no
8,1,1,1,0,0,1,1,8,0,8,8,0,no
3,0,0,0,0,0,1,1,3,0,3,3,0,no
2,1,0,0,1,0,1,1,2,0,2,2,0,no
3,0,0,0,0,0,1,1,3,0,3,3,0,no
3,0,0,0,0,0,1,1,3,0,3,3,0,no
3,0,0,0,2,0,1,1,3,0,3,3,0,no
3,0,0,0,0,0,1,1,3,0,3,3,0,no
3,1,0,0,1,0,1,1,3,0,3,3,0,no
3,0,0,0,0,0,1,1,3,0,3,3,0,no
3,0,0,0,1,0,1,1,3,0,3,3,0,no
15,0,3,1,2,2,1,1,15,0,15,15,0,no
3,0,0,0,0,0,1,1,3,0,3,3,0,no
2,0,0,0,1,0,1,1,2,0,2,2,0,no
3,0,0,0,1,0,1,1,3,0,3,3,0,no
7,0,2,2,3,1,1,1,7,0,7,7,0,no
3,0,0,0,0,0,1,1,3,0,3,3,0,no
3,1,0,0,1,0,1,1,3,0,3,3,0,no
3,0,0,0,0,0,1,1,3,0,3,3,0,no
8,1,1,1,1,1,1,1,8,0,8,8,0,no
8,2,1,1,1,1,1,1,8,0,8,8,0,no
3,1,0,0,1,0,1,1,3,0,3,3,0,no
3,2,0,0,1,0,1,1,3,0,3,3,0,no
3,1,0,0,1,0,1,1,3,0,3,3,0,no
3,2,0,0,1,0,1,1,3,0,3,3,0,no
3,1,0,0,1,0,1,1,3,0,3,3,0,no
3,2,0,0,1,0,1,1,3,0,3,3,0,no
3,1,0,0,1,0,1,1,3,0,3,3,0,no
3,2,0,0,1,0,1,1,3,0,3,3,0,no
3,0,0,0,0,0,1,1,3,0,3,3,0,no
10,1,2,1,1,1,1,1,10,0,10,10,0,no
2,0,0,0,0,0,1,1,2,0,2,2,0,no
7,1,1,1,3,0,1,1,7,0,7,7,0,no
10,1,2,1,2,0,1,1,10,0,10,10,0,no
7,1,1,1,2,0,1,1,7,0,7,7,0,no
6,0,1,1,1,0,1,1,6,0,6,6,0,no
6,0,1,1,1,0,1,1,6,0,6,6,0,no
11,0,2,1,3,1,1,1,11,0,11,11,0,no
7,0,1,1,1,0,1,1,7,0,7,7,0,no
5,0,0,0,0,0,1,1,5,0,5,5,0,no
4,0,0,0,0,0,1,1,4,0,4,4,0,no
3,0,0,0,1,0,1,1,3,0,3,3,0,no
5,0,0,0,1,1,1,1,5,0,5,5,0,no
3,0,0,0,2,0,1,1,3,0,3,3,0,no
3,0,0,0,1,0,1,1,3,0,3,3,0,no
3,0,0,0,0,0,1,1,3,0,3,3,0,no
3,1,0,0,1,0,1,1,3,0,3,3,0,no
3,0,0,0,0,0,1,1,3,0,3,3,0,no
3,0,0,0,1,0,1,1,3,0,3,3,0,no
3,0,0,0,0,0,1,1,3,0,3,3,0,no
3,0,0,0,1,0,1,1,3,0,3,3,0,no
3,0,0,0,0,0,1,1,3,0,3,3,0,no
31,2,6,3,3,3,1,1,31,0,31,31,0,no
8,1,1,1,2,0,1,1,8,0,8,8,0,no
15,1,4,2,4,0,1,1,15,0,15,15,0,no
5,1,0,0,0,0,1,1,5,0,5,5,0,no
7,2,1,1,1,0,1,1,7,0,7,7,0,no
4,2,0,0,1,0,1,1,4,0,4,4,0,no
4,2,0,0,1,0,1,1,4,0,4,4,0,no
3,0,0,0,1,0,1,1,3,0,3,3,0,no
3,0,0,0,0,0,1,1,3,0,3,3,0,no
3,0,0,0,0,0,1,1,3,0,3,3,0,no
3,0,0,0,0,0,1,1,3,0,3,3,0,no
3,0,0,0,0,0,1,1,3,0,3,3,0,no
6,1,1,1,1,0,1,1,6,0,6,6,0,no
18,1,7,1,0,0,1,1,18,0,18,18,0,no
3,1,0,0,0,0,1,1,3,0,3,3,0,no
4,2,0,0,1,0,1,1,4,0,4,4,0,no
3,0,0,0,1,0,1,1,3,0,3,3,0,no
3,0,0,0,0,0,1,1,3,0,3,3,0,no
3,0,0,0,0,0,1,1,3,0,3,3,0,no
3,0,0,0,0,0,1,1,3,0,3,3,0,no
3,0,0,0,0,0,1,1,3,0,3,3,0,no
6,1,1,1,1,0,1,1,6,0,6,6,0,no
8,1,2,1,0,0,1,1,8,0,8,8,0,no
3,1,0,0,0,0,1,1,3,0,3,3,0,no
3,0,0,0,0,0,1,1,3,0,3,3,0,no
2,1,0,0,1,0,1,1,2,0,2,2,0,no
3,0,0,0,1,0,1,1,3,0,3,3,0,no
3,0,0,0,0,0,1,1,3,0,3,3,0,no
3,0,0,0,0,0,1,1,3,0,3,3,0,no
3,0,0,0,2,0,1,1,3,0,3,3,0,no
3,0,0,0,1,0,1,1,3,0,3,3,0,no
3,0,0,0,1,0,1,1,3,0,3,3,0,no
50,0,13,1,1,3,1,1,50,0,50,50,0,no
3,0,0,0,0,0,1,1,3,0,3,3,0,no
3,0,0,0,1,0,1,1,3,0,3,3,0,no
3,0,0,0,1,0,1,1,3,0,3,3,0,no
3,0,0,0,1,0,1,1,3,0,3,3,0,no
3,0,0,0,0,0,1,1,3,0,3,3,0,no
3,1,0,0,0,0,1,1,3,0,3,3,0,no
3,0,0,0,0,0,1,1,3,0,3,3,0,no
3,0,0,0,0,0,1,1,3,0,3,3,0,no
3,0,0,0,0,0,1,1,3,0,3,3,0,no
3,0,0,0,1,0,1,1,3,0,3,3,0,no
3,0,0,0,1,0,1,1,3,0,3,3,0,no
3,0,0,0,0,0,1,1,3,0,3,3,0,no
3,0,0,0,0,0,1,1,3,0,3,3,0,no
3,0,0,0,0,0,1,1,3,0,3,3,0,no
3,0,0,0,0,0,1,1,3,0,3,3,0,no
3,0,0,0,0,0,1,1,3,0,3,3,0,no
3,0,0,0,0,0,1,1,3,0,3,3,0,no
3,0,0,0,0,0,1,1,3,0,3,3,0,no
3,0,0,0,0,0,1,1,3,0,3,3,0,no
3,0,0,0,0,0,1,1,3,0,3,3,0,no
3,0,0,0,0,0,1,1,3,0,3,3,0,no
3,0,0,0,0,0,1,1,3,0,3,3,0,no
10,0,0,0,8,0,1,1,10,0,10,10,0,no
3,0,0,0,1,0,1,1,3,0,3,3,0,no
35,0,16,2,11,0,1,1,35,0,35,35,0,no
3,0,0,0,0,0,1,1,3,0,3,3,0,no
3,1,0,0,1,0,1,1,3,0,3,3,0,no
3,0,0,0,0,0,1,1,3,0,3,3,0,no
8,1,1,1,1,1,1,1,8,0,8,8,0,no
8,2,1,1,1,1,1,1,8,0,8,8,0,no
3,1,0,0,1,0,1,1,3,0,3,3,0,no
3,2,0,0,1,0,1,1,3,0,3,3,0,no
3,1,0,0,1,0,1,1,3,0,3,3,0,no
3,2,0,0,1,0,1,1,3,0,3,3,0,no
3,1,0,0,1,0,1,1,3,0,3,3,0,no
3,2,0,0,1,0,1,1,3,0,3,3,0,no
3,1,0,0,1,0,1,1,3,0,3,3,0,no
3,2,0,0,1,0,1,1,3,0,3,3,0,no
3,0,0,0,0,0,1,1,3,0,3,3,0,no
40,1,12,1,0,1,1,1,40,0,40,40,0,no
2,0,0,0,0,0,1,1,2,0,2,2,0,no
7,1,1,1,1,0,1,1,7,0,7,7,0,no
10,1,2,1,0,0,1,1,10,0,10,10,0,no
6,0,1,1,1,0,1,1,6,0,6,6,0,no
6,0,1,1,1,0,1,1,6,0,6,6,0,no
11,0,2,1,3,1,1,1,11,0,11,11,0,no
7,0,1,1,1,0,1,1,7,0,7,7,0,no
5,0,0,0,1,0,1,1,5,0,5,5,0,no
5,0,0,0,1,0,1,1,5,0,5,5,0,no
5,0,0,0,1,0,1,1,5,0,5,5,0,no
5,0,0,0,0,0,1,1,5,0,5,5,0,no
5,0,0,0,1,0,1,1,5,0,5,5,0,no
5,0,0,0,1,0,1,1,5,0,5,5,0,no
5,0,0,0,1,0,1,1,5,0,5,5,0,no
5,0,0,0,0,0,1,1,5,0,5,5,0,no
4,0,0,0,0,0,1,1,4,0,4,4,0,no
5,0,0,0,0,0,1,1,5,0,5,5,0,no
5,0,0,0,1,0,1,1,5,0,5,5,0,no
5,0,0,0,1,0,1,1,5,0,5,5,0,no
3,0,0,0,1,0,1,1,3,0,3,3,0,no
5,0,0,0,1,1,1,1,5,0,5,5,0,no
3,0,0,0,1,0,1,1,3,0,3,3,0,no
3,0,0,0,2,0,1,1,3,0,3,3,0,no
3,0,0,0,1,0,1,1,3,0,3,3,0,no
3,0,0,0,1,0,1,1,3,0,3,3,0,no
3,0,0,0,1,0,1,1,3,0,3,3,0,no
3,0,0,0,0,0,1,1,3,0,3,3,0,no
3,0,0,0,1,0,1,1,3,0,3,3,0,no
3,0,0,0,1,0,1,1,3,0,3,3,0,no
3,0,0,0,1,0,1,1,3,0,3,3,0,no
3,0,0,0,0,0,1,1,3,0,3,3,0,no
3,1,0,0,0,0,1,1,3,0,3,3,0,no
3,0,0,0,0,0,1,1,3,0,3,3,0,no
3,0,0,0,0,0,1,1,3,0,3,3,0,no
3,0,0,0,0,0,1,1,3,0,3,3,0,no
3,0,0,0,1,0,1,1,3,0,3,3,0,no
3,0,0,0,1,0,1,1,3,0,3,3,0,no
3,0,0,0,0,0,1,1,3,0,3,3,0,no
3,0,0,0,0,0,1,1,3,0,3,3,0,no
3,0,0,0,0,0,1,1,3,0,3,3,0,no
3,0,0,0,0,0,1,1,3,0,3,3,0,no
3,0,0,0,0,0,1,1,3,0,3,3,0,no
3,0,0,0,0,0,1,1,3,0,3,3,0,no
3,0,0,0,0,0,1,1,3,0,3,3,0,no
3,0,0,0,0,0,1,1,3,0,3,3,0,no
3,0,0,0,0,0,1,1,3,0,3,3,0,no
3,0,0,0,0,0,1,1,3,0,3,3,0,no
3,0,0,0,0,0,1,1,3,0,3,3,0,no
3,0,0,0,1,0,1,1,3,0,3,3,0,no
3,0,0,0,0,0,1,1,3,0,3,3,0,no
9,1,1,1,3,0,1,1,9,0,9,9,0,no
121,2,24,3,17,12,1,1,121,0,121,121,0,no
8,1,1,1,2,0,1,1,8,0,8,8,0,no
45,1,14,2,3,0,1,1,45,0,45,45,0,no
9,1,1,1,3,0,1,1,9,0,9,9,0,no
9,1,1,1,3,0,1,1,9,0,9,9,0,no
9,1,1,1,3,0,1,1,9,0,9,9,0,no
9,1,1,1,3,0,1,1,9,0,9,9,0,no
9,1,1,1,3,0,1,1,9,0,9,9,0,no
8,1,1,1,1,0,1,1,8,0,8,8,0,no
5,1,0,0,1,0,1,1,5,0,5,5,0,no
8,1,1,1,1,0,1,1,8,0,8,8,0,no
8,1,1,1,1,0,1,1,8,0,8,8,0,no
5,1,0,0,1,0,1,1,5,0,5,5,0,no
5,1,0,0,0,0,1,1,5,0,5,5,0,no
8,1,1,1,1,0,1,1,8,0,8,8,0,no
5,1,0,0,1,0,1,1,5,0,5,5,0,no
8,1,1,1,1,0,1,1,8,0,8,8,0,no
5,1,0,0,1,0,1,1,5,0,5,5,0,no
8,1,1,1,1,0,1,1,8,0,8,8,0,no
5,1,0,0,1,0,1,1,5,0,5,5,0,no
8,1,1,1,0,0,1,1,8,0,8,8,0,no
7,2,1,1,0,0,1,1,7,0,7,7,0,no
5,1,0,0,0,0,1,1,5,0,5,5,0,no
8,1,1,1,1,0,1,1,8,0,8,8,0,no
8,1,1,1,1,0,1,1,8,0,8,8,0,no
5,1,0,0,1,0,1,1,5,0,5,5,0,no
3,0,0,0,0,0,1,1,3,0,3,3,0,no
2,1,0,0,1,0,1,1,2,0,2,2,0,no
3,0,0,0,0,0,1,1,3,0,3,3,0,no
3,0,0,0,0,0,1,1,3,0,3,3,0,no
3,0,0,0,2,0,1,1,3,0,3,3,0,no
3,0,0,0,1,0,1,1,3,0,3,3,0,no
3,0,0,0,1,0,1,1,3,0,3,3,0,no
30,0,8,1,1,1,1,1,30,0,30,30,0,no
3,0,0,0,1,0,1,1,3,0,3,3,0,no
3,0,0,0,1,0,1,1,3,0,3,3,0,no
3,0,0,0,0,0,1,1,3,0,3,3,0,no
3,0,0,0,0,0,1,1,3,0,3,3,0,no
3,0,0,0,0,0,1,1,3,0,3,3,0,no
3,0,0,0,0,0,1,1,3,0,3,3,0,no
3,0,0,0,0,0,1,1,3,0,3,3,0,no
3,0,0,0,0,0,1,1,3,0,3,3,0,no
3,0,0,0,0,0,1,1,3,0,3,3,0,no
3,0,0,0,0,0,1,1,3,0,3,3,0,no
3,0,0,0,0,0,1,1,3,0,3,3,0,no
3,0,0,0,0,0,1,1,3,0,3,3,0,no
5,0,0,0,3,0,1,1,5,0,5,5,0,no
3,0,0,0,1,0,1,1,3,0,3,3,0,no
13,0,5,2,5,0,1,1,13,0,13,13,0,no
3,0,0,0,0,0,1,1,3,0,3,3,0,no
3,1,0,0,1,0,1,1,3,0,3,3,0,no
3,0,0,0,0,0,1,1,3,0,3,3,0,no
8,1,1,1,1,1,1,1,8,0,8,8,0,no
8,2,1,1,1,1,1,1,8,0,8,8,0,no
3,1,0,0,1,0,1,1,3,0,3,3,0,no
3,2,0,0,1,0,1,1,3,0,3,3,0,no
3,1,0,0,1,0,1,1,3,0,3,3,0,no
3,2,0,0,1,0,1,1,3,0,3,3,0,no
3,1,0,0,1,0,1,1,3,0,3,3,0,no
3,2,0,0,1,0,1,1,3,0,3,3,0,no
3,1,0,0,1,0,1,1,3,0,3,3,0,no
3,2,0,0,1,0,1,1,3,0,3,3,0,no
3,0,0,0,0,0,1,1,3,0,3,3,0,no
25,1,7,1,0,0,1,1,25,0,25,25,0,no
2,0,0,0,0,0,1,1,2,0,2,2,0,no
6,0,1,1,1,0,1,1,6,0,6,6,0,no
6,0,1,1,1,0,1,1,6,0,6,6,0,no
8,0,1,1,2,1,1,1,8,0,8,8,0,no
7,0,1,1,1,0,1,1,7,0,7,7,0,no
5,0,0,0,1,0,1,1,5,0,5,5,0,no
5,0,0,0,1,0,1,1,5,0,5,5,0,no
5,0,0,0,1,0,1,1,5,0,5,5,0,no
5,0,0,0,0,0,1,1,5,0,5,5,0,no
5,0,0,0,0,0,1,1,5,0,5,5,0,no
5,0,0,0,0,0,1,1,5,0,5,5,0,no
5,0,0,0,0,0,1,1,5,0,5,5,0,no
3,0,0,0,1,0,1,1,3,0,3,3,0,no
5,0,0,0,1,1,1,1,5,0,5,5,0,no
3,0,0,0,2,0,1,1,3,0,3,3,0,no
3,0,0,0,1,0,1,1,3,0,3,3,0,no
3,0,0,0,1,0,1,1,3,0,3,3,0,no
3,0,0,0,1,0,1,1,3,0,3,3,0,no
3,0,0,0,1,0,1,1,3,0,3,3,0,no
3,0,0,0,1,0,1,1,3,0,3,3,0,no
3,0,0,0,0,0,1,1,3,0,3,3,0,no
3,0,0,0,0,0,1,1,3,0,3,3,0,no
3,0,0,0,0,0,1,1,3,0,3,3,0,no
3,0,0,0,0,0,1,1,3,0,3,3,0,no
3,0,0,0,0,0,1,1,3,0,3,3,0,no
3,0,0,0,0,0,1,1,3,0,3,3,0,no
3,0,0,0,0,0,1,1,3,0,3,3,0,no
3,0,0,0,0,0,1,1,3,0,3,3,0,no
3,0,0,0,0,0,1,1,3,0,3,3,0,no
3,0,0,0,0,0,1,1,3,0,3,3,0,no
3,0,0,0,1,0,1,1,3,0,3,3,0,no
3,0,0,0,0,0,1,1,3,0,3,3,0,no
71,2,14,3,7,7,1,1,71,0,71,71,0,no
8,1,1,1,2,0,1,1,8,0,8,8,0,no
27,1,8,1,3,0,1,1,27,0,27,27,0,no
9,1,1,1,3,0,1,1,9,0,9,9,0,no
8,1,1,1,1,0,1,1,8,0,8,8,0,no
5,1,0,0,1,0,1,1,5,0,5,5,0,no
8,1,1,1,1,0,1,1,8,0,8,8,0,no
8,1,1,1,1,0,1,1,8,0,8,8,0,no
8,1,1,1,1,0,1,1,8,0,8,8,0,no
8,1,1,1,0,0,1,1,8,0,8,8,0,no
8,1,1,1,0,0,1,1,8,0,8,8,0,no
5,1,0,0,0,0,1,1,5,0,5,5,0,no
3,0,0,0,0,0,1,1,3,0,3,3,0,no
2,1,0,0,1,0,1,1,2,0,2,2,0,no
3,0,0,0,0,0,1,1,3,0,3,3,0,no
3,0,0,0,0,0,1,1,3,0,3,3,0,no
3,0,0,0,2,0,1,1,3,0,3,3,0,no
3,0,0,0,1,0,1,1,3,0,3,3,0,no
12,0,2,1,1,1,1,1,12,0,12,12,0,no
3,0,0,0,0,0,1,1,3,0,3,3,0,no
3,0,0,0,1,0,1,1,3,0,3,3,0,no
3,0,0,0,1,0,1,1,3,0,3,3,0,no
7,0,2,1,4,0,1,1,7,0,7,7,0,no
3,0,0,0,0,0,1,1,3,0,3,3,0,no
3,1,0,0,1,0,1,1,3,0,3,3,0,no
3,0,0,0,0,0,1,1,3,0,3,3,0,no
8,1,1,1,1,1,1,1,8,0,8,8,0,no
8,2,1,1,1,1,1,1,8,0,8,8,0,no
3,1,0,0,1,0,1,1,3,0,3,3,0,no
3,2,0,0,1,0,1,1,3,0,3,3,0,no
3,1,0,0,1,0,1,1,3,0,3,3,0,no
3,2,0,0,1,0,1,1,3,0,3,3,0,no
3,1,0,0,1,0,1,1,3,0,3,3,0,no
3,2,0,0,1,0,1,1,3,0,3,3,0,no
3,1,0,0,1,0,1,1,3,0,3,3,0,no
3,2,0,0,1,0,1,1,3,0,3,3,0,no
3,0,0,0,0,0,1,1,3,0,3,3,0,no
7,1,1,1,0,0,1,1,7,0,7,7,0,no
2,0,0,0,0,0,1,1,2,0,2,2,0,no
6,0,1,1,1,0,1,1,6,0,6,6,0,no
6,0,1,1,1,0,1,1,6,0,6,6,0,no
8,0,1,1,2,1,1,1,8,0,8,8,0,no
7,0,1,1,1,0,1,1,7,0,7,7,0,no
5,0,0,0,1,0,1,1,5,0,5,5,0,no
3,0,0,0,1,0,1,1,3,0,3,3,0,no
5,0,0,0,1,1,1,1,5,0,5,5,0,no
3,0,0,0,2,0,1,1,3,0,3,3,0,no
3,0,0,0,1,0,1,1,3,0,3,3,0,no
3,0,0,0,1,0,1,1,3,0,3,3,0,no
3,0,0,0,0,0,1,1,3,0,3,3,0,no
3,0,0,0,1,0,1,1,3,0,3,3,0,no
3,0,0,0,0,0,1,1,3,0,3,3,0,no
29,2,6,3,3,3,1,1,29,0,29,29,0,no
8,1,1,1,2,0,1,1,8,0,8,8,0,no
9,1,2,1,3,0,1,1,9,0,9,9,0,no
9,1,1,1,3,0,1,1,9,0,9,9,0,no
8,1,1,1,1,0,1,1,8,0,8,8,0,no
5,1,0,0,1,0,1,1,5,0,5,5,0,no
3,0,0,0,0,0,1,1,3,0,3,3,0,no
2,1,0,0,1,0,1,1,2,0,2,2,0,no
3,0,0,0,0,0,1,1,3,0,3,3,0,no
3,0,0,0,0,0,1,1,3,0,3,3,0,no
3,0,0,0,2,0,1,1,3,0,3,3,0,no
3,0,0,0,0,0,1,1,3,0,3,3,0,no
3,0,0,0,0,0,1,1,3,0,3,3,0,no
15,0,3,1,1,1,1,1,15,0,15,15,0,no
3,0,0,0,0,0,1,1,3,0,3,3,0,no
3,0,0,0,0,0,1,1,3,0,3,3,0,no
2,0,0,0,1,0,1,1,2,0,2,2,0,no
3,0,0,0,1,0,1,1,3,0,3,3,0,no
7,0,2,1,4,0,1,1,7,0,7,7,0,no
3,0,0,0,0,0,1,1,3,0,3,3,0,no
3,1,0,0,1,0,1,1,3,0,3,3,0,no
3,0,0,0,0,0,1,1,3,0,3,3,0,no
8,1,1,1,1,1,1,1,8,0,8,8,0,no
8,2,1,1,1,1,1,1,8,0,8,8,0,no
3,1,0,0,1,0,1,1,3,0,3,3,0,no
3,2,0,0,1,0,1,1,3,0,3,3,0,no
3,1,0,0,1,0,1,1,3,0,3,3,0,no
3,2,0,0,1,0,1,1,3,0,3,3,0,no
3,1,0,0,1,0,1,1,3,0,3,3,0,no
3,2,0,0,1,0,1,1,3,0,3,3,0,no
3,1,0,0,1,0,1,1,3,0,3,3,0,no
3,2,0,0,1,0,1,1,3,0,3,3,0,no
3,0,0,0,0,0,1,1,3,0,3,3,0,no
10,1,2,1,0,0,1,1,10,0,10,10,0,no
2,0,0,0,0,0,1,1,2,0,2,2,0,no
6,0,1,1,1,0,1,1,6,0,6,6,0,no
6,0,1,1,1,0,1,1,6,0,6,6,0,no
8,0,1,1,2,1,1,1,8,0,8,8,0,no
7,0,1,1,1,0,1,1,7,0,7,7,0,no
5,0,0,0,0,0,1,1,5,0,5,5,0,no
5,0,0,0,0,0,1,1,5,0,5,5,0,no
3,0,0,0,1,0,1,1,3,0,3,3,0,no
5,0,0,0,1,1,1,1,5,0,5,5,0,no
3,0,0,0,2,0,1,1,3,0,3,3,0,no
3,0,0,0,1,0,1,1,3,0,3,3,0,no
3,0,0,0,0,0,1,1,3,0,3,3,0,no
3,0,0,0,0,0,1,1,3,0,3,3,0,no
3,0,0,0,0,0,1,1,3,0,3,3,0,no
3,0,0,0,0,0,1,1,3,0,3,3,0,no
3,0,0,0,1,0,1,1,3,0,3,3,0,no
3,0,0,0,0,0,1,1,3,0,3,3,0,no
29,2,6,3,1,2,1,1,29,0,29,29,0,no
8,1,1,1,2,0,1,1,8,0,8,8,0,no
12,1,3,1,3,0,1,1,12,0,12,12,0,no
8,1,1,1,0,0,1,1,8,0,8,8,0,no
5,1,0,0,0,0,1,1,5,0,5,5,0,no
3,0,0,0,0,0,1,1,3,0,3,3,0,no
2,1,0,0,1,0,1,1,2,0,2,2,0,no
3,0,0,0,0,0,1,1,3,0,3,3,0,no
3,0,0,0,0,0,1,1,3,0,3,3,0,no
3,0,0,0,2,0,1,1,3,0,3,3,0,no
12,0,2,1,1,1,1,1,12,0,12,12,0,no
3,0,0,0,0,0,1,1,3,0,3,3,0,no
3,0,0,0,0,0,1,1,3,0,3,3,0,no
2,0,0,0,1,0,1,1,2,0,2,2,0,no
3,0,0,0,1,0,1,1,3,0,3,3,0,no
5,0,1,1,3,0,1,1,5,0,5,5,0,no
3,0,0,0,0,0,1,1,3,0,3,3,0,no
3,1,0,0,1,0,1,1,3,0,3,3,0,no
3,0,0,0,0,0,1,1,3,0,3,3,0,no
8,1,1,1,1,1,1,1,8,0,8,8,0,no
8,2,1,1,1,1,1,1,8,0,8,8,0,no
3,1,0,0,1,0,1,1,3,0,3,3,0,no
3,2,0,0,1,0,1,1,3,0,3,3,0,no
3,1,0,0,1,0,1,1,3,0,3,3,0,no
3,2,0,0,1,0,1,1,3,0,3,3,0,no
3,1,0,0,1,0,1,1,3,0,3,3,0,no
3,2,0,0,1,0,1,1,3,0,3,3,0,no
3,1,0,0,1,0,1,1,3,0,3,3,0,no
3,2,0,0,1,0,1,1,3,0,3,3,0,no
3,0,0,0,0,0,1,1,3,0,3,3,0,no
7,1,1,1,0,0,1,1,7,0,7,7,0,no
2,0,0,0,0,0,1,1,2,0,2,2,0,no
6,0,1,1,1,0,1,1,6,0,6,6,0,no
6,0,1,1,1,0,1,1,6,0,6,6,0,no
8,0,1,1,2,1,1,1,8,0,8,8,0,no
7,0,1,1,1,0,1,1,7,0,7,7,0,no
5,0,0,0,0,0,1,1,5,0,5,5,0,no
3,0,0,0,1,0,1,1,3,0,3,3,0,no
5,0,0,0,1,1,1,1,5,0,5,5,0,no
3,0,0,0,2,0,1,1,3,0,3,3,0,no
3,0,0,0,1,0,1,1,3,0,3,3,0,no
3,0,0,0,0,0,1,1,3,0,3,3,0,no
3,0,0,0,0,0,1,1,3,0,3,3,0,no
3,0,0,0,1,0,1,1,3,0,3,3,0,no
3,0,0,0,0,0,1,1,3,0,3,3,0,no
24,2,5,3,1,2,1,1,24,0,24,24,0,no
8,1,1,1,2,0,1,1,8,0,8,8,0,no
9,1,2,1,3,0,1,1,9,0,9,9,0,no
8,1,1,1,0,0,1,1,8,0,8,8,0,no
4,2,0,0,1,0,1,1,4,0,4,4,0,no
3,0,0,0,1,0,1,1,3,0,3,3,0,no
3,0,0,0,0,0,1,1,3,0,3,3,0,no
3,0,0,0,0,0,1,1,3,0,3,3,0,no
3,0,0,0,0,0,1,1,3,0,3,3,0,no
3,0,0,0,0,0,1,1,3,0,3,3,0,no
6,1,1,1,1,0,1,1,6,0,6,6,0,no
30,1,13,1,0,0,1,1,30,0,30,30,0,yes
3,1,0,0,0,0,1,1,3,0,3,3,0,no
3,0,0,0,0,0,1,1,3,0,3,3,0,no
2,1,0,0,1,0,1,1,2,0,2,2,0,no
3,0,0,0,0,0,1,1,3,0,3,3,0,no
3,0,0,0,0,0,1,1,3,0,3,3,0,no
3,0,0,0,2,0,1,1,3,0,3,3,0,no
12,0,2,1,1,1,1,1,12,0,12,12,0,no
3,0,0,0,0,0,1,1,3,0,3,3,0,no
3,0,0,0,0,0,1,1,3,0,3,3,0,no
2,0,0,0,1,0,1,1,2,0,2,2,0,no
3,0,0,0,1,0,1,1,3,0,3,3,0,no
5,0,1,1,3,0,1,1,5,0,5,5,0,no
3,0,0,0,0,0,1,1,3,0,3,3,0,no
3,1,0,0,1,0,1,1,3,0,3,3,0,no
3,0,0,0,0,0,1,1,3,0,3,3,0,no
8,1,1,1,1,1,1,1,8,0,8,8,0,no
8,2,1,1,1,1,1,1,8,0,8,8,0,no
3,1,0,0,1,0,1,1,3,0,3,3,0,no
3,2,0,0,1,0,1,1,3,0,3,3,0,no
3,1,0,0,1,0,1,1,3,0,3,3,0,no
3,2,0,0,1,0,1,1,3,0,3,3,0,no
3,1,0,0,1,0,1,1,3,0,3,3,0,no
3,2,0,0,1,0,1,1,3,0,3,3,0,no
3,1,0,0,1,0,1,1,3,0,3,3,0,no
3,2,0,0,1,0,1,1,3,0,3,3,0,no
3,0,0,0,0,0,1,1,3,0,3,3,0,no
7,1,1,1,0,0,1,1,7,0,7,7,0,no
2,0,0,0,0,0,1,1,2,0,2,2,0,no
6,0,1,1,1,0,1,1,6,0,6,6,0,no
6,0,1,1,1,0,1,1,6,0,6,6,0,no
8,0,1,1,2,1,1,1,8,0,8,8,0,no
7,0,1,1,1,0,1,1,7,0,7,7,0,no
5,0,0,0,0,0,1,1,5,0,5,5,0,no
3,0,0,0,1,0,1,1,3,0,3,3,0,no
5,0,0,0,1,1,1,1,5,0,5,5,0,no
3,0,0,0,2,0,1,1,3,0,3,3,0,no
3,0,0,0,1,0,1,1,3,0,3,3,0,no
3,0,0,0,0,0,1,1,3,0,3,3,0,no
3,0,0,0,0,0,1,1,3,0,3,3,0,no
3,0,0,0,1,0,1,1,3,0,3,3,0,no
3,0,0,0,0,0,1,1,3,0,3,3,0,no
24,2,5,3,1,2,1,1,24,0,24,24,0,no
8,1,1,1,2,0,1,1,8,0,8,8,0,no
9,1,2,1,3,0,1,1,9,0,9,9,0,no
8,1,1,1,0,0,1,1,8,0,8,8,0,no
3,0,0,0,0,0,1,1,3,0,3,3,0,no
2,1,0,0,1,0,1,1,2,0,2,2,0,no
3,0,0,0,1,0,1,1,3,0,3,3,0,no
3,0,0,0,0,0,1,1,3,0,3,3,0,no
3,0,0,0,0,0,1,1,3,0,3,3,0,no
3,0,0,0,2,0,1,1,3,0,3,3,0,no
18,0,4,1,1,1,1,1,18,0,18,18,0,no
3,0,0,0,0,0,1,1,3,0,3,3,0,no
3,0,0,0,0,0,1,1,3,0,3,3,0,no
3,0,0,0,0,0,1,1,3,0,3,3,0,no
3,0,0,0,0,0,1,1,3,0,3,3,0,no
3,0,0,0,0,0,1,1,3,0,3,3,0,no
3,0,0,0,1,0,1,1,3,0,3,3,0,no
3,0,0,0,1,0,1,1,3,0,3,3,0,no
5,0,1,1,3,0,1,1,5,0,5,5,0,no
3,0,0,0,0,0,1,1,3,0,3,3,0,no
3,1,0,0,1,0,1,1,3,0,3,3,0,no
3,0,0,0,0,0,1,1,3,0,3,3,0,no
8,1,1,1,1,1,1,1,8,0,8,8,0,no
8,2,1,1,1,1,1,1,8,0,8,8,0,no
3,1,0,0,1,0,1,1,3,0,3,3,0,no
3,2,0,0,1,0,1,1,3,0,3,3,0,no
3,1,0,0,1,0,1,1,3,0,3,3,0,no
3,2,0,0,1,0,1,1,3,0,3,3,0,no
3,1,0,0,1,0,1,1,3,0,3,3,0,no
3,2,0,0,1,0,1,1,3,0,3,3,0,no
3,1,0,0,1,0,1,1,3,0,3,3,0,no
3,2,0,0,1,0,1,1,3,0,3,3,0,no
3,0,0,0,0,0,1,1,3,0,3,3,0,no
13,1,3,1,0,0,1,1,13,0,13,13,0,no
2,0,0,0,0,0,1,1,2,0,2,2,0,no
6,0,1,1,1,0,1,1,6,0,6,6,0,no
6,0,1,1,1,0,1,1,6,0,6,6,0,no
8,0,1,1,2,1,1,1,8,0,8,8,0,no
7,0,1,1,1,0,1,1,7,0,7,7,0,no
5,0,0,0,1,0,1,1,5,0,5,5,0,no
5,0,0,0,0,0,1,1,5,0,5,5,0,no
5,0,0,0,0,0,1,1,5,0,5,5,0,no
3,0,0,0,1,0,1,1,3,0,3,3,0,no
5,0,0,0,1,1,1,1,5,0,5,5,0,no
3,0,0,0,1,0,1,1,3,0,3,3,0,no
3,0,0,0,2,0,1,1,3,0,3,3,0,no
3,0,0,0,1,0,1,1,3,0,3,3,0,no
3,0,0,0,0,0,1,1,3,0,3,3,0,no
3,0,0,0,0,0,1,1,3,0,3,3,0,no
3,0,0,0,0,0,1,1,3,0,3,3,0,no
3,0,0,0,0,0,1,1,3,0,3,3,0,no
3,0,0,0,0,0,1,1,3,0,3,3,0,no
3,0,0,0,1,0,1,1,3,0,3,3,0,no
3,0,0,0,0,0,1,1,3,0,3,3,0,no
40,2,8,3,3,4,1,1,40,0,40,40,0,no
8,1,1,1,2,0,1,1,8,0,8,8,0,no
15,1,4,1,3,0,1,1,15,0,15,15,0,no
8,1,1,1,1,0,1,1,8,0,8,8,0,no
8,1,1,1,0,0,1,1,8,0,8,8,0,no
5,1,0,0,0,0,1,1,5,0,5,5,0,no
4,2,0,0,1,0,1,1,4,0,4,4,0,no
3,0,0,0,1,0,1,1,3,0,3,3,0,no
3,0,0,0,0,0,1,1,3,0,3,3,0,no
3,0,0,0,0,0,1,1,3,0,3,3,0,no
3,0,0,0,0,0,1,1,3,0,3,3,0,no
3,0,0,0,0,0,1,1,3,0,3,3,0,no
6,1,1,1,1,0,1,1,6,0,6,6,0,no
12,1,4,1,0,0,1,1,12,0,12,12,0,no
3,1,0,0,0,0,1,1,3,0,3,3,0,no
3,0,0,0,0,0,1,1,3,0,3,3,0,no
2,1,0,0,1,0,1,1,2,0,2,2,0,no
3,0,0,0,0,0,1,1,3,0,3,3,0,no
3,0,0,0,0,0,1,1,3,0,3,3,0,no
3,0,0,0,2,0,1,1,3,0,3,3,0,no
3,0,0,0,1,0,1,1,3,0,3,3,0,no
12,0,2,1,1,1,1,1,12,0,12,12,0,no
3,0,0,0,0,0,1,1,3,0,3,3,0,no
3,0,0,0,1,0,1,1,3,0,3,3,0,no
3,0,0,0,1,0,1,1,3,0,3,3,0,no
7,0,2,1,4,0,1,1,7,0,7,7,0,no
3,0,0,0,0,0,1,1,3,0,3,3,0,no
3,1,0,0,1,0,1,1,3,0,3,3,0,no
3,0,0,0,0,0,1,1,3,0,3,3,0,no
8,1,1,1,1,1,1,1,8,0,8,8,0,no
8,2,1,1,1,1,1,1,8,0,8,8,0,no
3,1,0,0,1,0,1,1,3,0,3,3,0,no
3,2,0,0,1,0,1,1,3,0,3,3,0,no
3,1,0,0,1,0,1,1,3,0,3,3,0,no
3,2,0,0,1,0,1,1,3,0,3,3,0,no
3,1,0,0,1,0,1,1,3,0,3,3,0,no
3,2,0,0,1,0,1,1,3,0,3,3,0,no
3,1,0,0,1,0,1,1,3,0,3,3,0,no
3,2,0,0,1,0,1,1,3,0,3,3,0,no
3,0,0,0,0,0,1,1,3,0,3,3,0,no
7,1,1,1,0,0,1,1,7,0,7,7,0,no
2,0,0,0,0,0,1,1,2,0,2,2,0,no
6,0,1,1,1,0,1,1,6,0,6,6,0,no
6,0,1,1,1,0,1,1,6,0,6,6,0,no
8,0,1,1,2,1,1,1,8,0,8,8,0,no
7,0,1,1,1,0,1,1,7,0,7,7,0,no
5,0,0,0,1,0,1,1,5,0,5,5,0,no
3,0,0,0,1,0,1,1,3,0,3,3,0,no
5,0,0,0,1,1,1,1,5,0,5,5,0,no
3,0,0,0,2,0,1,1,3,0,3,3,0,no
3,0,0,0,1,0,1,1,3,0,3,3,0,no
3,0,0,0,1,0,1,1,3,0,3,3,0,no
3,0,0,0,0,0,1,1,3,0,3,3,0,no
3,0,0,0,1,0,1,1,3,0,3,3,0,no
3,0,0,0,0,0,1,1,3,0,3,3,0,no
29,2,6,3,3,3,1,1,29,0,29,29,0,no
8,1,1,1,2,0,1,1,8,0,8,8,0,no
9,1,2,1,3,0,1,1,9,0,9,9,0,no
9,1,1,1,3,0,1,1,9,0,9,9,0,no
8,1,1,1,1,0,1,1,8,0,8,8,0,no
5,1,0,0,1,0,1,1,5,0,5,5,0,no
3,0,0,0,0,0,1,1,3,0,3,3,0,no
2,1,0,0,1,0,1,1,2,0,2,2,0,no
3,0,0,0,0,0,1,1,3,0,3,3,0,no
3,0,0,0,0,0,1,1,3,0,3,3,0,no
3,0,0,0,2,0,1,1,3,0,3,3,0,no
12,0,2,1,1,1,1,1,12,0,12,12,0,no
3,0,0,0,0,0,1,1,3,0,3,3,0,no
3,0,0,0,0,0,1,1,3,0,3,3,0,no
2,0,0,0,1,0,1,1,2,0,2,2,0,no
3,0,0,0,1,0,1,1,3,0,3,3,0,no
5,0,1,1,3,0,1,1,5,0,5,5,0,no
3,0,0,0,0,0,1,1,3,0,3,3,0,no
3,1,0,0,1,0,1,1,3,0,3,3,0,no
3,0,0,0,0,0,1,1,3,0,3,3,0,no
8,1,1,1,1,1,1,1,8,0,8,8,0,no
8,2,1,1,1,1,1,1,8,0,8,8,0,no
3,1,0,0,1,0,1,1,3,0,3,3,0,no
3,2,0,0,1,0,1,1,3,0,3,3,0,no
3,1,0,0,1,0,1,1,3,0,3,3,0,no
3,2,0,0,1,0,1,1,3,0,3,3,0,no
3,1,0,0,1,0,1,1,3,0,3,3,0,no
3,2,0,0,1,0,1,1,3,0,3,3,0,no
3,1,0,0,1,0,1,1,3,0,3,3,0,no
3,2,0,0,1,0,1,1,3,0,3,3,0,no
3,0,0,0,0,0,1,1,3,0,3,3,0,no
7,1,1,1,0,0,1,1,7,0,7,7,0,no
2,0,0,0,0,0,1,1,2,0,2,2,0,no
6,0,1,1,1,0,1,1,6,0,6,6,0,no
6,0,1,1,1,0,1,1,6,0,6,6,0,no
8,0,1,1,2,1,1,1,8,0,8,8,0,no
7,0,1,1,1,0,1,1,7,0,7,7,0,no
5,0,0,0,0,0,1,1,5,0,5,5,0,no
3,0,0,0,1,0,1,1,3,0,3,3,0,no
5,0,0,0,1,1,1,1,5,0,5,5,0,no
3,0,0,0,2,0,1,1,3,0,3,3,0,no
3,0,0,0,1,0,1,1,3,0,3,3,0,no
3,0,0,0,0,0,1,1,3,0,3,3,0,no
3,0,0,0,0,0,1,1,3,0,3,3,0,no
3,0,0,0,1,0,1,1,3,0,3,3,0,no
3,0,0,0,0,0,1,1,3,0,3,3,0,no
24,2,5,3,1,2,1,1,24,0,24,24,0,no
8,1,1,1,2,0,1,1,8,0,8,8,0,no
9,1,2,1,3,0,1,1,9,0,9,9,0,no
8,1,1,1,0,0,1,1,8,0,8,8,0,no
19,2,5,2,0,3,1,1,19,0,19,19,0,no
14,2,4,2,1,3,1,1,14,0,14,14,0,no
7,1,1,1,0,2,1,1,7,0,7,7,0,no
3,2,0,0,0,0,1,1,3,0,3,3,0,no
6,2,0,0,0,1,1,1,6,0,6,6,0,no
13,1,1,1,0,3,1,1,13,0,13,13,0,no
16,3,4,2,1,5,1,1,16,0,16,16,0,no
3,1,0,0,0,0,1,1,3,0,3,3,0,no
3,2,0,0,0,0,1,1,3,0,3,3,0,no
3,1,0,0,0,0,1,1,3,0,3,3,0,no
3,1,0,0,0,0,1,1,3,0,3,3,0,no
5,1,0,0,0,1,1,1,5,0,5,5,0,no
0,1,0,0,0,0,1,1,0,0,0,0,0,no
10,0,0,0,0,2,1,1,10,0,10,10,0,no
10,2,1,1,2,1,1,1,10,0,10,10,0,yes
0,0,0,0,0,0,1,1,0,0,0,0,0,no
5,2,0,0,0,0,1,1,5,0,5,5,0,no
15,2,3,1,1,1,1,1,15,0,15,15,0,yes
6,1,0,0,0,1,2,2,7,1,6,4,0,no
26,1,1,1,0,11,2,2,27,1,26,14,0,yes
4,1,0,0,0,1,1,1,4,0,4,4,0,no
5,0,0,0,0,0,1,1,5,0,5,5,0,no
3,5,0,0,0,0,1,1,3,0,3,3,0,no
11,1,1,1,0,5,1,1,11,0,11,11,0,no
18,1,1,1,0,8,1,1,18,0,18,18,0,yes
4,1,0,0,0,1,1,1,4,0,4,4,0,no
3,0,0,0,0,0,2,2,4,1,3,2.5,0,no
3,4,0,0,0,0,1,1,3,0,3,3,0,no
10,1,0,0,0,1,1,1,10,0,10,10,0,no
7,0,0,0,0,1,1,1,7,0,7,7,0,no
3,1,0,0,0,0,1,1,3,0,3,3,0,no
17,2,1,1,0,5,1,1,17,0,17,17,0,no
11,1,2,1,0,1,1,1,11,0,11,11,0,no
3,0,0,0,0,0,1,1,3,0,3,3,0,no
3,0,0,0,0,0,1,1,3,0,3,3,0,no
3,0,0,0,0,0,1,1,3,0,3,3,0,no
3,0,0,0,0,0,1,1,3,0,3,3,0,no
10,0,2,2,1,2,1,1,10,0,10,10,0,no
3,0,0,0,0,0,1,1,3,0,3,3,0,no
3,0,0,0,0,0,1,1,3,0,3,3,0,no
3,0,0,0,0,0,1,1,3,0,3,3,0,no
3,0,0,0,0,0,1,1,3,0,3,3,0,no
3,0,0,0,0,0,1,1,3,0,3,3,0,no
6,0,1,1,0,0,1,1,6,0,6,6,0,no
3,0,0,0,0,0,1,1,3,0,3,3,0,no
3,0,0,0,0,0,1,1,3,0,3,3,0,no
3,0,0,0,0,0,1,1,3,0,3,3,0,no
3,0,0,0,0,0,1,1,3,0,3,3,0,no
6,0,1,1,0,0,1,1,6,0,6,6,0,no
3,0,0,0,0,0,1,1,3,0,3,3,0,no
3,0,0,0,0,0,1,1,3,0,3,3,0,no
3,0,0,0,0,0,1,1,3,0,3,3,0,no
6,0,1,1,0,0,1,1,6,0,6,6,0,no
3,0,0,0,0,0,1,1,3,0,3,3,0,no
3,0,0,0,0,0,1,1,3,0,3,3,0,no
3,1,0,0,0,0,1,1,3,0,3,3,0,no
3,0,0,0,0,0,1,1,3,0,3,3,0,no
3,1,0,0,0,0,1,1,3,0,3,3,0,no
3,0,0,0,0,0,1,1,3,0,3,3,0,no
3,2,0,0,0,0,1,1,3,0,3,3,0,no
3,1,0,0,0,0,1,1,3,0,3,3,0,no
3,0,0,0,0,0,1,1,3,0,3,3,0,no
3,0,0,0,0,0,1,1,3,0,3,3,0,no
3,0,0,0,0,0,1,1,3,0,3,3,0,no
4,1,0,0,0,0,1,1,4,0,4,4,0,no
5,0,0,0,0,0,1,1,5,0,5,5,0,no
3,0,0,0,0,0,1,1,3,0,3,3,0,no
7,0,1,1,0,0,1,1,7,0,7,7,0,no
8,0,1,1,0,1,1,1,8,0,8,8,0,no
15,0,5,3,2,2,1,1,15,0,15,15,0,no
4,2,0,0,1,0,2,2,5,1,4,3,0,yes
3,1,0,0,0,0,1,1,3,0,3,3,0,no
3,1,0,0,0,0,1,1,3,0,3,3,0,no
7,1,2,1,2,1,1,1,7,0,7,7,0,no
14,2,2,1,1,2,1,1,14,0,14,14,0,no
16,3,0,0,0,0,1,1,16,0,16,16,0,no
4,2,0,0,0,0,1,1,4,0,4,4,0,no
4,2,0,0,0,0,1,1,4,0,4,4,0,no
3,1,0,0,0,0,1,1,3,0,3,3,0,no
4,0,0,0,0,0,1,1,4,0,4,4,0,no
0,0,0,0,0,0,1,1,0,0,0,0,0,no
3,1,0,0,0,0,1,1,3,0,3,3,0,no
3,1,0,0,0,0,1,1,3,0,3,3,0,no
3,1,0,0,0,0,1,1,3,0,3,3,0,no
3,0,0,0,0,0,1,1,3,0,3,3,0,no
8,1,1,1,1,1,1,1,8,0,8,8,0,no
3,0,0,0,0,0,1,1,3,0,3,3,0,no
12,1,2,1,0,1,1,1,12,0,12,12,0,no
5,2,0,0,0,1,1,1,5,0,5,5,0,no
0,0,0,0,1,0,1,1,0,0,0,0,0,no
0,0,0,0,1,0,1,1,0,0,0,0,0,no
0,0,0,0,1,0,1,1,0,0,0,0,0,no
0,0,0,0,1,0,1,1,0,0,0,0,0,no
0,2,0,0,1,0,1,1,0,0,0,0,0,no
0,6,0,0,1,0,1,1,0,0,0,0,0,no
0,2,0,0,1,0,1,1,0,0,0,0,0,no
7,2,0,0,0,0,1,1,7,0,7,7,0,no
4,2,0,0,0,1,1,1,4,0,4,4,0,no
5,1,1,1,0,0,1,1,5,0,5,5,0,no
7,1,1,1,0,1,1,1,7,0,7,7,0,no
3,3,0,0,0,0,1,1,3,0,3,3,0,no
17,4,4,1,0,2,2,2,17,0,14,8.5,0,no
6,1,1,1,0,0,1,1,6,0,6,6,0,yes
11,0,2,2,0,2,1,1,11,0,11,11,0,yes
15,0,3,2,0,1,1,1,15,0,15,15,0,no
4,6,0,0,0,1,1,1,4,0,4,4,0,no
3,0,0,0,0,0,1,1,3,0,3,3,0,no
3,1,0,0,0,0,1,1,3,0,3,3,0,no
6,2,1,1,0,1,1,1,6,0,6,6,0,no
8,6,0,0,0,0,1,1,8,0,8,8,0,no
10,0,1,1,0,1,1,1,10,0,10,10,0,no
3,0,0,0,0,0,1,1,3,0,3,3,0,no
3,0,0,0,0,0,1,1,3,0,3,3,0,no
3,0,0,0,0,0,1,1,3,0,3,3,0,no
3,0,0,0,0,0,1,1,3,0,3,3,0,no
3,0,0,0,0,0,1,1,3,0,3,3,0,no
14,2,2,1,0,1,1,1,14,0,14,14,0,no
9,0,1,1,1,1,1,1,9,0,9,9,0,no
3,0,0,0,0,0,1,1,3,0,3,3,0,no
6,2,1,1,0,0,1,1,6,0,6,6,0,no
2,2,0,0,0,0,1,1,2,0,2,2,0,no
12,0,2,1,0,1,1,1,12,0,12,12,0,no
3,1,0,0,0,0,1,1,3,0,3,3,0,no
4,0,0,0,0,0,1,1,4,0,4,4,0,no
8,0,0,0,0,1,1,1,8,0,8,8,0,no
3,0,0,0,0,0,1,1,3,0,3,3,0,no
0,0,0,0,1,0,1,1,0,0,0,0,0,no
5,3,0,0,0,0,1,1,5,0,5,5,0,no
22,0,2,1,0,3,1,1,22,0,22,22,0,no
3,0,0,0,0,0,1,1,3,0,3,3,0,no
3,0,0,0,0,0,1,1,3,0,3,3,0,no
3,1,0,0,0,0,1,1,3,0,3,3,0,no
8,0,0,0,0,0,1,1,8,0,8,8,0,no
3,0,0,0,0,0,1,1,3,0,3,3,0,no
4,2,0,0,0,0,1,1,4,0,4,4,0,no
16,2,1,1,0,0,1,1,16,0,16,16,0,no
0,2,0,0,0,0,1,1,0,0,0,0,0,no
3,2,0,0,0,0,1,1,3,0,3,3,0,no
7,2,1,1,0,0,1,1,7,0,7,7,0,no
0,1,0,0,1,0,1,1,0,0,0,0,0,no
4,3,0,0,0,0,1,1,4,0,4,4,0,no
8,2,1,1,0,1,1,1,8,0,8,8,0,no
2,2,0,0,1,0,1,1,2,0,2,2,0,no
2,2,0,0,2,0,1,1,2,0,2,2,0,no
0,2,0,0,2,0,1,1,0,0,0,0,0,no
4,3,0,0,0,0,1,1,4,0,4,4,0,no
18,2,1,1,0,2,1,1,18,0,18,18,0,yes
3,2,0,0,0,0,1,1,3,0,3,3,0,no
3,2,0,0,0,0,1,1,3,0,3,3,0,yes
8,5,0,0,0,0,1,1,8,0,8,8,0,no
8,1,1,1,0,1,1,1,8,0,8,8,0,no
42,2,4,1,0,8,1,1,42,0,42,42,0,yes
3,2,0,0,0,0,1,1,3,0,3,3,0,no
18,2,2,1,0,3,1,1,18,0,18,18,0,yes
5,4,0,0,0,0,1,1,5,0,5,5,0,no
20,2,1,1,0,3,1,1,20,0,20,20,0,yes
3,2,0,0,0,0,1,1,3,0,3,3,0,no
4,2,0,0,0,0,1,1,4,0,4,4,0,yes
3,1,0,0,0,0,1,1,3,0,3,3,0,no
43,2,3,2,1,4,1,1,43,0,43,43,0,no
5,3,0,0,0,0,2,2,6,1,5,3.5,0,no
13,2,2,0,1,4,1,1,13,0,13,13,0,no
9,4,0,0,0,1,1,1,9,0,9,9,0,no
21,1,3,2,0,3,2,2,21,0,19,10.5,0,no
3,2,0,0,0,0,1,1,3,0,3,3,0,no
7,2,1,1,0,0,1,1,7,0,7,7,0,no
14,0,2,2,0,1,1,1,14,0,14,14,0,no
17,0,3,2,1,1,3,3,18,1,9,6.333333,0,no
22,1,4,2,2,4,1,1,22,0,22,22,0,yes
26,0,7,2,2,0,2,2,26,0,24,13,0,yes
24,0,2,2,0,1,1,1,24,0,24,24,0,yes
3,2,0,0,0,0,1,1,3,0,3,3,0,no
5,1,1,1,0,0,2,2,5,0,3,2.5,0,no
5,3,0,0,0,0,1,1,5,0,5,5,0,no
12,0,1,1,0,1,1,1,12,0,12,12,0,no
6,3,0,0,0,0,1,1,6,0,6,6,0,no
16,2,3,3,0,0,1,1,16,0,16,16,0,no
5,2,0,0,0,1,1,1,5,0,5,5,0,no
5,2,1,1,0,0,1,1,5,0,5,5,0,no
12,2,2,2,0,2,1,1,12,0,12,12,0,no
15,2,2,1,0,4,1,1,15,0,15,15,0,no
8,3,1,1,0,2,1,1,8,0,8,8,0,no
10,1,2,2,0,0,1,1,10,0,10,10,0,no
7,5,0,0,0,0,1,1,7,0,7,7,0,no
3,3,0,0,0,0,1,1,3,0,3,3,0,no
2,1,0,0,0,0,1,1,2,0,2,2,0,no
18,2,4,3,2,3,1,1,18,0,18,18,0,no
2,2,0,0,0,0,1,1,2,0,2,2,0,no
7,1,1,1,0,1,1,1,7,0,7,7,0,no
3,3,0,0,0,0,1,1,3,0,3,3,0,no
3,1,0,0,0,0,1,1,3,0,3,3,0,no
3,1,0,0,0,0,1,1,3,0,3,3,0,no
3,1,0,0,0,0,1,1,3,0,3,3,0,no
3,1,0,0,0,0,1,1,3,0,3,3,0,no
3,1,0,0,0,0,1,1,3,0,3,3,0,no
2,3,0,0,2,0,1,1,2,0,2,2,0,no
3,3,0,0,0,0,1,1,3,0,3,3,0,no
29,2,4,1,2,5,1,1,29,0,29,29,0,no
32,2,4,2,1,8,2,2,33,1,32,17,0,no
45,3,5,1,4,7,1,1,45,0,45,45,0,no
33,0,4,2,0,4,1,1,33,0,33,33,0,no
15,4,1,1,0,2,1,1,15,0,15,15,0,no
23,3,4,1,2,4,1,1,23,0,23,23,0,no
40,3,5,1,4,7,1,1,40,0,40,40,0,no
22,4,3,1,2,5,1,1,22,0,22,22,0,no
23,5,3,2,0,3,1,1,23,0,23,23,0,no
8,4,1,1,0,1,1,1,8,0,8,8,0,no
9,4,1,1,0,1,1,1,9,0,9,9,0,no
3,2,0,0,0,0,1,1,3,0,3,3,0,no
5,3,0,0,0,0,1,1,5,0,5,5,0,no
4,1,0,0,0,0,1,1,4,0,4,4,0,no
35,0,4,1,1,6,2,2,36,1,35,18.5,0,yes
15,4,2,1,1,2,2,2,16,1,15,8.5,0,yes
4,1,0,0,0,0,1,1,4,0,4,4,0,no
66,3,9,2,4,7,1,1,66,0,66,66,0,no
8,0,1,1,0,0,1,1,8,0,8,8,0,no
13,1,2,2,0,2,1,1,13,0,13,13,0,no
11,3,1,1,2,1,1,1,11,0,11,11,0,no
39,4,6,2,2,4,1,1,39,0,39,39,0,no
3,1,0,0,0,0,1,1,3,0,3,3,0,no
14,0,4,2,0,2,1,1,14,0,14,14,0,no
4,2,0,0,0,0,1,1,4,0,4,4,0,no
17,1,7,2,6,1,1,1,17,0,17,17,0,no
3,0,0,0,0,0,1,1,3,0,3,3,0,no
3,0,0,0,0,0,1,1,3,0,3,3,0,no
7,0,1,0,0,2,1,1,7,0,7,7,0,no
3,0,0,0,0,0,1,1,3,0,3,3,0,no
2,0,0,0,2,0,1,1,2,0,2,2,0,no
7,2,1,1,0,0,1,1,7,0,7,7,0,no
3,0,0,0,0,0,1,1,3,0,3,3,0,no
6,0,1,1,0,0,1,1,6,0,6,6,0,no
3,0,0,0,0,0,1,1,3,0,3,3,0,no
6,1,1,1,0,1,1,1,6,0,6,6,0,no
14,2,3,1,0,1,1,1,14,0,14,14,0,no
0,0,0,0,1,0,1,1,0,0,0,0,0,no
12,0,3,1,2,0,1,1,12,0,12,12,0,no
16,2,2,2,0,3,1,1,16,0,16,16,0,no
21,2,3,2,7,4,1,1,21,0,21,21,0,yes
9,2,1,1,1,2,1,1,9,0,9,9,0,yes
2,2,0,0,0,0,1,1,2,0,2,2,0,no
12,1,2,1,0,2,1,1,12,0,12,12,0,no
18,0,4,3,1,1,1,1,18,0,18,18,0,no
3,1,0,0,0,0,1,1,3,0,3,3,0,no
3,3,0,0,0,0,1,1,3,0,3,3,0,no
3,1,0,0,1,0,1,1,3,0,3,3,0,yes
3,0,0,0,0,0,1,1,3,0,3,3,0,no
47,1,6,3,4,10,1,1,47,0,47,47,0,no
4,0,0,0,0,0,1,1,4,0,4,4,0,no
4,1,0,0,1,0,1,1,4,0,4,4,0,no
68,7,11,5,5,11,1,1,68,0,68,68,0,yes
4,1,0,0,1,0,1,1,4,0,4,4,0,no
8,0,1,1,0,0,1,1,8,0,8,8,0,no
4,4,0,0,0,1,1,1,4,0,4,4,0,no
8,3,1,1,0,1,1,1,8,0,8,8,0,no
14,3,3,2,0,1,1,1,14,0,14,14,0,no
6,4,0,0,0,0,1,1,6,0,6,6,0,no
3,0,0,0,0,0,1,1,3,0,3,3,0,no
3,0,0,0,0,0,1,1,3,0,3,3,0,no
3,0,0,0,0,0,1,1,3,0,3,3,0,no
3,0,0,0,0,0,1,1,3,0,3,3,0,no
0,2,0,0,1,0,1,1,0,0,0,0,0,no
0,2,0,0,1,0,1,1,0,0,0,0,0,no
0,1,0,0,1,0,1,1,0,0,0,0,0,no
0,3,0,0,1,0,1,1,0,0,0,0,0,no
0,1,0,0,1,0,1,1,0,0,0,0,0,no
0,1,0,0,1,0,1,1,0,0,0,0,0,no
0,1,0,0,1,0,1,1,0,0,0,0,0,no
8,6,0,0,0,0,1,1,8,0,8,8,0,no
3,0,0,0,0,0,1,1,3,0,3,3,0,no
3,0,0,0,0,0,1,1,3,0,3,3,0,no
3,0,0,0,0,0,1,1,3,0,3,3,0,no
3,0,0,0,0,0,1,1,3,0,3,3,0,no
3,0,0,0,0,0,1,1,3,0,3,3,0,no
3,0,0,0,0,0,1,1,3,0,3,3,0,no
5,2,0,0,0,0,1,1,5,0,5,5,0,no
15,3,2,1,1,1,1,1,15,0,15,15,0,no
19,0,3,3,1,5,1,1,19,0,19,19,0,no
3,2,0,0,0,0,1,1,3,0,3,3,0,no
3,2,0,0,0,0,1,1,3,0,3,3,0,no
13,1,1,1,0,4,1,1,13,0,13,13,0,no
25,3,4,2,1,8,1,1,25,0,25,25,0,no
5,1,1,1,0,0,1,1,5,0,5,5,0,no
3,1,0,0,0,0,1,1,3,0,3,3,0,no
3,3,0,0,0,0,1,1,3,0,3,3,0,no
4,1,0,0,0,1,1,1,4,0,4,4,0,no
17,4,4,1,0,1,1,1,17,0,17,17,0,no
12,0,2,2,0,1,1,1,12,0,12,12,0,no
3,1,0,0,0,0,1,1,3,0,3,3,0,no
4,0,0,0,0,0,1,1,4,0,4,4,0,no
3,0,0,0,0,0,1,1,3,0,3,3,0,no
0,0,0,0,1,0,1,1,0,0,0,0,0,no
4,2,0,0,0,0,1,1,4,0,4,4,0,no
23,0,4,2,0,5,1,1,23,0,23,23,0,no
4,2,0,0,0,0,1,1,4,0,4,4,0,no
5,0,0,0,0,0,1,1,5,0,5,5,0,no
3,0,0,0,0,0,1,1,3,0,3,3,0,no
3,0,0,0,0,0,1,1,3,0,3,3,0,no
6,2,0,0,0,3,1,1,6,0,6,6,0,no
7,2,0,0,0,3,1,1,7,0,7,7,0,no
3,0,0,0,0,0,1,1,3,0,3,3,0,no
4,2,0,0,0,0,1,1,4,0,4,4,0,no
6,1,1,1,0,1,1,1,6,0,6,6,0,no
14,2,2,1,1,2,1,1,14,0,14,14,0,no
3,2,0,0,0,0,1,1,3,0,3,3,0,no
5,2,1,1,0,0,1,1,5,0,5,5,0,no
3,1,0,0,0,0,1,1,3,0,3,3,0,no
8,0,1,1,0,2,1,1,8,0,8,8,0,no
4,2,0,0,0,0,1,1,4,0,4,4,0,no
3,0,0,0,0,0,1,1,3,0,3,3,0,yes
3,0,0,0,0,0,1,1,3,0,3,3,0,no
3,0,0,0,0,0,1,1,3,0,3,3,0,no
0,2,0,0,1,0,1,1,0,0,0,0,0,no
0,2,0,0,1,0,1,1,0,0,0,0,0,no
0,2,0,0,1,0,1,1,0,0,0,0,0,no
4,2,0,0,0,0,1,1,4,0,4,4,0,no
3,0,0,0,0,0,1,1,3,0,3,3,0,no
3,0,0,0,0,0,1,1,3,0,3,3,0,no
6,4,0,0,0,0,1,1,6,0,6,6,0,no
3,0,0,0,0,0,1,1,3,0,3,3,0,no
3,0,0,0,0,0,1,1,3,0,3,3,0,no
3,0,0,0,0,0,1,1,3,0,3,3,0,no
3,0,0,0,0,0,1,1,3,0,3,3,0,no
3,1,0,0,0,0,1,1,3,0,3,3,0,no
10,2,2,2,0,3,1,1,10,0,10,10,0,no
10,1,2,1,0,2,1,1,10,0,10,10,0,no
9,3,2,1,0,1,1,1,9,0,9,9,0,no
3,2,0,0,0,0,1,1,3,0,3,3,0,no
16,2,3,1,0,2,1,1,16,0,16,16,0,no
2,2,0,0,2,0,1,1,2,0,2,2,0,no
2,2,0,0,2,0,1,1,2,0,2,2,0,no
3,1,0,0,0,0,1,1,3,0,3,3,0,no
21,2,0,0,1,2,1,1,21,0,21,21,0,no
3,0,0,0,0,0,1,1,3,0,3,3,0,no
10,0,0,0,0,1,1,1,10,0,10,10,0,yes
13,0,0,0,0,3,1,1,13,0,13,13,0,no
22,1,4,2,2,4,1,1,22,0,22,22,0,yes
5,0,0,0,0,0,2,2,6,1,5,3.5,0,no
7,0,0,0,0,0,1,1,7,0,7,7,0,no
3,2,0,0,0,0,1,1,3,0,3,3,0,no
3,0,0,0,0,0,1,1,3,0,3,3,0,no
3,0,0,0,0,0,1,1,3,0,3,3,0,no
3,1,0,0,0,0,1,1,3,0,3,3,0,no
12,2,2,1,0,1,1,1,12,0,12,12,0,no
3,1,0,0,0,0,1,1,3,0,3,3,0,no
17,2,1,1,0,1,1,1,17,0,17,17,0,no
3,2,0,0,0,0,1,1,3,0,3,3,0,no
3,2,0,0,0,0,1,1,3,0,3,3,0,no
4,2,0,0,0,0,1,1,4,0,4,4,0,no
38,2,4,1,0,6,3,2,40,2,38,14,0,yes
13,5,1,1,0,2,1,1,13,0,13,13,0,no
6,1,1,1,0,0,1,1,6,0,6,6,0,no
4,2,0,0,0,0,1,1,4,0,4,4,0,no
20,2,3,1,0,2,1,1,20,0,20,20,0,yes
4,2,0,0,0,0,1,1,4,0,4,4,0,no
3,1,0,0,0,0,1,1,3,0,3,3,0,no
24,2,2,1,0,2,1,1,24,0,24,24,0,no
3,2,0,0,0,0,1,1,3,0,3,3,0,no
9,2,1,1,0,0,1,1,9,0,9,9,0,no
4,2,0,0,0,0,1,1,4,0,4,4,0,no
21,2,1,1,0,2,1,1,21,0,21,21,0,no
3,2,0,0,0,0,1,1,3,0,3,3,0,no
3,2,0,0,0,0,1,1,3,0,3,3,0,no
4,1,0,0,0,0,1,1,4,0,4,4,0,no
4,2,0,0,0,0,1,1,4,0,4,4,0,no
4,2,0,0,0,0,1,1,4,0,4,4,0,no
12,1,0,0,0,0,1,1,12,0,12,12,0,no
3,0,0,0,0,0,1,1,3,0,3,3,0,no
3,0,0,0,0,0,1,1,3,0,3,3,0,no
3,1,0,0,0,0,1,1,3,0,3,3,0,no
3,5,0,0,0,0,1,1,3,0,3,3,0,no
3,4,0,0,0,0,1,1,3,0,3,3,0,no
3,3,0,0,0,0,1,1,3,0,3,3,0,no
3,2,0,0,0,0,1,1,3,0,3,3,0,no
8,5,1,1,1,1,1,1,8,0,8,8,0,no
58,3,11,3,10,4,3,2,60,2,58,20.666667,0,yes
22,1,3,1,3,2,1,1,22,0,22,22,0,yes
5,0,1,1,0,1,2,2,6,1,5,3.5,0,yes
53,0,11,3,10,4,1,1,6,0,6,6,0,yes
6,0,1,1,0,2,1,1,6,0,6,6,0,yes
4,2,1,1,2,0,1,1,4,0,4,4,0,yes
4,2,1,1,1,0,1,1,4,0,4,4,0,yes
5,2,1,1,2,0,1,1,5,0,5,5,0,no
35,2,7,2,7,0,2,2,36,1,35,18.5,0,no
19,5,3,1,3,0,1,1,19,0,19,19,0,no
5,2,1,1,2,0,1,1,5,0,5,5,0,no
5,2,1,1,1,0,1,1,5,0,5,5,0,no
12,1,1,1,0,2,1,1,12,0,12,12,0,no
3,0,0,0,0,0,1,1,3,0,3,3,0,no
9,4,1,1,0,0,1,1,9,0,9,9,0,no
3,3,0,0,0,0,1,1,3,0,3,3,0,no
3,1,0,0,0,0,1,1,3,0,3,3,0,no
0,5,0,0,1,0,1,1,0,0,0,0,0,no
0,4,0,0,0,0,1,1,0,0,0,0,0,no
6,1,1,1,1,1,2,1,6,0,5,3,0,yes
6,4,1,1,0,2,1,1,6,0,6,6,0,no
3,1,1,1,1,1,1,1,3,0,3,3,0,no
0,3,0,0,1,0,1,1,0,0,0,0,0,no
3,5,0,0,0,0,1,1,3,0,3,3,0,no
3,5,0,0,0,0,1,1,3,0,3,3,0,no
3,0,0,0,0,0,1,1,3,0,3,3,0,yes
3,4,0,0,0,0,1,1,3,0,3,3,0,no
0,5,0,0,0,0,1,1,0,0,0,0,0,no
3,3,0,0,0,0,1,1,3,0,3,3,0,no
36,0,4,2,4,3,1,1,36,0,36,36,0,no
3,2,0,0,0,0,1,1,3,0,3,3,0,no
24,2,3,2,4,3,1,1,24,0,24,24,0,no
4,2,0,0,1,0,1,1,4,0,4,4,0,no
5,2,0,0,1,0,1,1,5,0,5,5,0,no
5,5,0,0,0,0,1,1,5,0,5,5,0,no
20,0,4,2,0,2,1,1,20,0,20,20,0,no
18,0,5,3,2,5,1,1,18,0,18,18,0,yes
5,5,0,0,0,0,1,1,5,0,5,5,0,no
55,0,6,2,3,8,1,1,55,0,55,55,0,yes
3,2,0,0,0,0,1,1,3,0,3,3,0,no
18,2,1,1,3,1,1,1,18,0,18,18,0,yes
4,2,0,0,1,0,1,1,4,0,4,4,0,yes
4,2,0,0,0,0,1,1,4,0,4,4,0,no
4,4,0,0,0,0,1,1,4,0,4,4,0,no
24,0,3,1,1,1,1,1,24,0,24,24,0,yes
3,2,0,0,0,0,1,1,3,0,3,3,0,no
6,2,1,1,1,0,1,1,6,0,6,6,0,yes
3,1,0,0,0,0,1,1,3,0,3,3,0,no
7,1,1,1,1,0,1,1,7,0,7,7,0,no
3,4,0,0,0,0,1,1,3,0,3,3,0,no
3,5,0,0,0,0,1,1,3,0,3,3,0,no
3,4,0,0,0,0,1,1,3,0,3,3,0,no
2,1,0,0,0,0,1,1,2,0,2,2,0,no
8,3,1,1,0,1,1,1,8,0,8,8,0,no
3,5,0,0,0,0,1,1,3,0,3,3,0,no
3,1,0,0,0,0,1,1,3,0,3,3,0,no
4,2,0,0,0,0,1,1,4,0,4,4,0,no
3,0,0,0,0,0,1,1,3,0,3,3,0,no
3,0,0,0,0,0,1,1,3,0,3,3,0,no
8,2,1,1,0,0,1,1,8,0,8,8,0,yes
0,1,0,0,1,0,1,1,0,0,0,0,0,no
0,3,0,0,1,0,1,1,0,0,0,0,0,no
0,1,0,0,1,0,1,1,0,0,0,0,0,no
0,1,0,0,1,0,1,1,0,0,0,0,0,no
0,5,0,0,1,0,1,1,0,0,0,0,0,no
0,5,0,0,1,0,1,1,0,0,0,0,0,no
0,4,0,0,1,0,1,1,0,0,0,0,0,no
3,0,0,0,0,0,1,1,3,0,3,3,0,no
3,1,0,0,0,0,1,1,3,0,3,3,0,no
4,5,0,0,0,0,1,1,4,0,4,4,0,no
16,5,2,2,0,1,1,1,16,0,16,16,0,no
16,4,2,2,0,1,1,1,16,0,16,16,0,no
61,3,10,2,2,11,1,1,61,0,61,61,0,no
3,2,0,0,0,0,1,1,3,0,3,3,0,no
3,2,0,0,0,0,1,1,3,0,3,3,0,no
16,5,2,2,0,1,1,1,16,0,16,16,0,no
55,4,10,2,2,10,1,1,55,0,55,55,0,no
4,1,1,1,1,0,1,1,4,0,4,4,0,no
27,5,5,1,0,3,1,1,27,0,27,27,0,no
11,4,2,2,0,1,1,1,11,0,11,11,0,no
11,4,2,2,0,1,1,1,11,0,11,11,0,no
11,3,2,2,0,1,1,1,11,0,11,11,0,no
6,2,0,0,0,0,1,1,6,0,6,6,0,no
3,1,0,0,0,0,1,1,3,0,3,3,0,no
3,4,0,0,0,0,1,1,3,0,3,3,0,no
43,3,2,1,6,4,2,2,43,0,35,21.5,0,no
0,3,0,0,0,0,1,1,0,0,0,0,0,no
0,4,0,0,0,0,1,1,0,0,0,0,0,no
5,3,1,1,1,1,1,1,5,0,5,5,0,no
3,3,0,0,0,0,1,1,3,0,3,3,0,no
12,2,0,0,4,1,2,2,12,0,8,6,0,no
21,2,1,1,2,0,1,1,21,0,21,21,0,no
4,2,0,0,2,0,1,1,4,0,4,4,0,no
3,2,0,0,2,0,1,1,3,0,3,3,0,no
12,0,0,0,2,0,1,1,12,0,12,12,0,no
3,2,0,0,1,0,1,1,3,0,3,3,0,no
3,2,0,0,1,0,1,1,3,0,3,3,0,no
4,4,0,0,0,0,1,1,4,0,4,4,0,no
3,0,0,0,0,0,1,1,3,0,3,3,0,no
3,3,0,0,0,0,1,1,3,0,3,3,0,no
7,0,1,1,0,0,1,1,7,0,7,7,0,no
0,1,0,0,1,0,1,1,0,0,0,0,0,no
0,4,0,0,1,0,1,1,0,0,0,0,0,no
0,3,0,0,1,0,1,1,0,0,0,0,0,no
0,3,0,0,1,0,1,1,0,0,0,0,0,no
0,1,0,0,1,0,1,1,0,0,0,0,0,no
3,2,0,0,0,0,1,1,3,0,3,3,0,no
3,3,0,0,0,0,1,1,3,0,3,3,0,no
7,4,1,1,0,0,1,1,7,0,7,7,0,no
42,3,6,4,0,2,1,1,42,0,42,42,0,no
3,0,0,0,0,0,1,1,3,0,3,3,0,no
3,1,0,0,0,0,1,1,3,0,3,3,0,no
34,3,4,1,2,3,1,1,34,0,34,34,0,no
11,4,2,1,0,0,1,1,11,0,11,11,0,no
29,2,3,1,1,2,1,1,29,0,29,29,0,no
7,0,1,1,0,1,1,1,7,0,7,7,0,no
4,2,0,0,0,0,1,1,4,0,4,4,0,no
4,2,0,0,0,0,1,1,4,0,4,4,0,no
29,5,4,1,2,3,1,1,29,0,29,29,0,no
8,3,1,1,0,1,1,1,8,0,8,8,0,no
24,4,3,1,1,2,1,1,24,0,24,24,0,no
9,3,1,1,1,1,1,1,9,0,9,9,0,no
5,4,1,1,0,0,1,1,5,0,5,5,0,no
17,1,5,4,0,0,1,1,17,0,17,17,0,yes
7,4,0,0,0,0,1,1,7,0,7,7,0,no
14,0,1,1,0,2,1,1,14,0,14,14,0,no
42,1,8,3,2,7,1,1,42,0,42,42,0,no
22,0,4,2,0,1,1,1,22,0,22,22,0,no
6,0,1,1,2,0,1,1,6,0,6,6,0,no
36,0,5,2,1,3,1,1,36,0,36,36,0,no
31,5,7,3,2,2,1,1,31,0,31,31,0,no
8,4,1,1,0,1,1,1,8,0,8,8,0,no
31,5,5,2,1,3,1,1,31,0,31,31,0,no
8,3,1,1,0,1,1,1,8,0,8,8,0,no
14,4,3,2,0,1,1,1,14,0,14,14,0,no
7,4,1,1,1,0,1,1,7,0,7,7,0,no
0,4,0,0,0,0,1,1,0,0,0,0,0,no
7,3,1,1,1,0,1,1,7,0,7,7,0,no
0,3,0,0,0,0,1,1,0,0,0,0,0,no
7,3,1,1,1,0,1,1,7,0,7,7,0,no
0,3,0,0,0,0,1,1,0,0,0,0,0,no
7,3,1,1,1,0,1,1,7,0,7,7,0,no
0,3,0,0,0,0,1,1,0,0,0,0,0,no
7,4,1,1,1,0,1,1,7,0,7,7,0,no
0,4,0,0,0,0,1,1,0,0,0,0,0,no
4,1,0,0,0,1,1,1,4,0,4,4,0,no
3,1,0,0,0,0,1,1,3,0,3,3,0,no
7,5,1,1,1,0,1,1,7,0,7,7,0,no
0,5,0,0,0,0,1,1,0,0,0,0,0,no
7,4,1,1,1,0,1,1,7,0,7,7,0,no
0,4,0,0,0,0,1,1,0,0,0,0,0,no
7,5,1,1,1,0,1,1,7,0,7,7,0,no
0,5,0,0,0,0,1,1,0,0,0,0,0,no
7,4,1,1,1,0,1,1,7,0,7,7,0,no
0,4,0,0,0,0,1,1,0,0,0,0,0,no
7,4,1,1,1,0,1,1,7,0,7,7,0,no
0,4,0,0,0,0,1,1,0,0,0,0,0,no
7,3,1,1,1,0,1,1,7,0,7,7,0,no
0,3,0,0,0,0,1,1,0,0,0,0,0,no
21,7,2,1,0,0,1,1,21,0,21,21,0,no
5,3,0,0,1,1,1,1,5,0,5,5,0,no
16,4,2,1,0,0,1,1,16,0,16,16,0,no
7,4,1,1,0,0,1,1,7,0,7,7,0,no
18,1,2,2,0,3,1,1,18,0,18,18,0,no
75,1,4,1,2,25,3,1,75,0,67,25,0,no
3,0,0,0,0,0,1,1,3,0,3,3,0,no
5,0,1,1,0,0,1,1,5,0,5,5,0,no
7,5,1,1,1,0,1,1,7,0,7,7,0,no
7,1,1,1,0,0,1,1,7,0,7,7,0,no
9,5,2,1,1,0,1,1,9,0,9,9,0,no
107,1,16,7,2,20,2,1,107,0,103,53.5,0,no
62,3,11,5,2,14,1,1,62,0,62,62,0,no
4,1,0,0,0,1,1,1,4,0,4,4,0,no
13,2,2,2,1,2,1,1,13,0,13,13,0,no
42,1,9,6,1,7,2,1,43,1,42,22,0,no
3,0,0,0,1,0,2,1,4,1,3,2.5,0,no
5,1,1,1,0,0,1,1,5,0,5,5,0,no
17,6,2,2,1,1,1,1,17,0,17,17,0,no
11,4,1,1,0,2,2,1,11,0,9,5.5,0,no
6,0,1,1,0,1,1,1,6,0,6,6,0,no
3,0,0,0,0,0,1,1,3,0,3,3,0,no
3,0,0,0,0,0,1,1,3,0,3,3,0,no
3,0,0,0,0,0,1,1,3,0,3,3,0,no
132,1,14,3,9,36,4,2,134,2,104,34,0,no
11,2,1,1,0,5,1,1,11,0,11,11,0,no
64,0,10,3,5,10,3,2,64,0,60,21.333333,0,no
3,1,0,0,0,0,1,1,3,0,3,3,0,no
33,6,3,2,3,7,2,2,33,0,32,16.5,0,no
10,0,2,2,2,0,2,1,11,1,10,6,0,no
4,0,0,0,1,0,1,1,4,0,4,4,0,no
5,1,1,1,0,0,1,1,5,0,5,5,0,no
5,1,1,1,0,0,1,1,5,0,5,5,0,no
5,1,1,1,0,0,1,1,5,0,5,5,0,no
4,2,0,0,0,0,2,2,5,1,4,3,0,no
15,3,1,1,0,1,1,1,15,0,15,15,0,no
3,0,0,0,0,0,1,1,3,0,3,3,0,no
19,1,4,1,2,3,1,1,19,0,19,19,0,no
11,2,1,1,0,2,1,1,11,0,11,11,0,no
14,2,1,1,1,2,1,1,14,0,14,14,0,no
127,1,23,5,7,41,4,2,134,7,93,35.25,1,no
4,0,0,0,1,0,1,1,4,0,4,4,0,no
7,4,0,0,0,0,1,1,7,0,7,7,0,no
6,4,1,1,0,0,1,1,6,0,6,6,0,no
29,0,5,3,2,5,1,1,29,0,29,29,0,no
6,3,0,0,0,0,1,1,6,0,6,6,0,no
22,0,2,2,2,5,1,1,22,0,22,22,0,no
6,3,0,0,0,0,1,1,6,0,6,6,0,no
22,0,2,2,1,5,1,1,22,0,22,22,0,no
15,1,0,0,0,0,13,3,107,92,85,15.307692,1,no
9,4,1,1,0,1,2,1,0,9,5,4.5,0,no
5,2,0,0,0,2,3,1,9,4,8,4.333333,0,no
10,4,1,1,0,2,2,2,11,1,10,6,0,no
25,1,4,2,0,5,2,2,25,0,21,12.5,0,no
62,1,14,4,3,9,2,1,62,0,51,31,0,no
6,2,0,0,0,1,1,1,6,0,6,6,0,yes
7,1,1,1,0,2,1,1,7,0,7,7,0,no
3,1,0,0,0,0,1,1,3,0,3,3,0,no
15,2,1,1,0,3,4,2,19,4,9,5.75,0,no
8,1,1,1,0,0,1,1,8,0,8,8,0,yes
3,0,0,0,0,0,0,0,0,0,0,0,0,no
18,1,1,1,0,6,2,2,2,1,2,1.5,0,yes
21,2,4,3,0,1,2,2,25,4,25,14.5,1,yes
7,2,1,1,0,1,2,1,1,5,4,3,0,no
34,0,5,3,0,6,5,3,86,52,81,27.6,0,yes
6,4,0,0,0,1,2,1,10,4,10,7,0,no
11,1,2,1,0,0,2,2,12,1,11,6.5,1,yes
16,1,2,2,0,0,3,1,18,2,16,6.666667,0,no
11,0,2,1,0,0,7,4,24,61,52,12.142857,1,no
3,0,0,0,0,0,5,3,6,15,14,4.2,1,no
19,1,3,3,1,0,5,2,25,6,23,6.2,0,no
14,0,1,1,1,0,4,2,21,7,19,7,0,yes
18,0,4,2,0,0,2,1,19,1,18,10,0,no
6,2,1,1,0,0,1,1,6,0,6,6,0,no
29,3,5,3,0,6,1,1,29,0,29,29,0,yes
14,1,4,3,0,0,2,2,13,4,13,8.5,1,no
3,0,0,0,0,0,0,0,0,0,0,0,0,no
5,0,1,1,0,0,0,0,0,0,0,0,0,no
6,5,1,1,0,0,0,0,0,0,0,0,0,no
5,2,0,0,0,0,0,0,0,0,0,0,0,no
3,0,0,0,0,0,0,0,0,0,0,0,0,no
3,0,0,0,0,0,0,0,0,0,0,0,0,no
4,1,0,0,0,0,1,1,1,0,1,1,0,no
3,0,0,0,0,0,0,0,0,0,0,0,0,no
3,5,0,0,0,0,1,1,3,0,3,3,0,no
7,1,1,1,0,0,1,1,7,0,7,7,0,no
31,0,6,3,0,1,6,3,32,28,25,10,0,no
7,0,1,1,0,0,1,1,7,0,7,7,0,no
3,1,0,0,0,0,1,1,3,0,3,3,0,no
3,0,0,0,0,0,1,1,3,0,3,3,0,no
3,0,0,0,0,0,2,2,4,1,3,2.5,0,no
3,0,0,0,0,0,1,1,3,0,3,3,0,no
0,0,0,0,1,0,1,1,0,0,0,0,0,no
8,1,1,1,1,3,1,1,8,0,8,8,0,no
34,3,3,1,1,8,1,1,34,0,34,34,0,no
9,1,1,1,0,2,1,1,9,0,9,9,0,no
12,1,2,2,0,3,1,1,12,0,12,12,0,no
5,0,1,1,0,0,1,1,5,0,5,5,0,no
5,0,1,1,0,0,1,1,5,0,5,5,0,no
21,1,3,2,0,4,1,1,21,0,21,21,0,no
5,0,0,0,0,1,1,1,5,0,5,5,0,no
9,0,0,0,0,0,1,1,9,0,9,9,0,no
36,1,5,4,0,9,1,1,36,0,36,36,0,no
17,1,2,1,0,3,1,1,17,0,17,17,0,no
16,1,2,1,0,3,1,1,16,0,16,16,0,no
4,2,0,0,0,0,1,1,4,0,4,4,0,no
13,2,0,0,0,0,1,1,13,0,13,13,0,no
4,2,0,0,0,0,1,1,4,0,4,4,0,no
14,2,1,1,0,1,1,1,14,0,14,14,0,no
9,1,0,0,1,0,1,1,9,0,9,9,0,no
3,1,0,0,0,0,1,1,3,0,3,3,0,no
3,3,0,0,0,0,1,1,3,0,3,3,0,no
7,3,1,1,0,0,1,1,7,0,7,7,0,no
0,0,0,0,1,0,1,1,0,0,0,0,0,no
0,1,0,0,1,0,1,1,0,0,0,0,0,no
4,0,0,0,0,0,1,1,4,0,4,4,0,no
15,1,2,1,0,2,1,1,15,0,15,15,0,no
3,0,0,0,0,0,1,1,3,0,3,3,0,no
4,1,0,0,0,0,1,1,4,0,4,4,0,no
4,0,0,0,0,0,1,1,4,0,4,4,0,no
3,0,0,0,0,0,1,1,3,0,3,3,0,no
3,0,0,0,0,0,1,1,3,0,3,3,0,no
3,0,0,0,0,0,1,1,3,0,3,3,0,no
25,1,4,1,0,3,1,1,25,0,25,25,0,no
3,1,0,0,0,0,1,1,3,0,3,3,0,no
0,0,0,0,0,0,1,1,0,0,0,0,0,no
0,0,0,0,0,0,1,1,0,0,0,0,0,no
0,0,0,0,0,0,1,1,0,0,0,0,0,no
5,0,0,0,0,1,1,1,5,0,5,5,0,no
0,1,0,0,0,0,1,1,0,0,0,0,0,no
11,1,1,1,0,2,1,1,11,0,11,11,0,no
4,0,0,0,0,0,1,1,4,0,4,4,0,no
3,0,0,0,0,0,1,1,3,0,3,3,0,no
3,0,0,0,0,0,1,1,3,0,3,3,0,no
3,0,0,0,0,0,1,1,3,0,3,3,0,no
28,1,4,2,0,6,1,1,28,0,28,28,0,no
4,0,0,0,0,0,1,1,4,0,4,4,0,no
3,0,0,0,0,0,1,1,3,0,3,3,0,no
3,0,0,0,0,0,1,1,3,0,3,3,0,no
3,0,0,0,0,0,1,1,3,0,3,3,0,no
28,1,4,2,0,6,1,1,28,0,28,28,0,no
6,2,0,0,0,0,0,0,0,0,0,0,0,no
14,1,2,1,0,0,0,0,0,0,0,0,0,no
3,0,0,0,0,0,1,1,3,0,3,3,1,no
3,0,0,0,0,0,0,0,0,0,0,0,0,no
54,2,12,6,0,7,1,1,2,0,2,2,1,no
3,0,0,0,0,0,0,0,0,0,0,0,0,no
24,1,4,2,0,2,0,0,0,0,0,0,0,no
2,0,0,0,0,0,1,1,2,0,2,2,0,no
7,2,1,1,0,1,1,1,7,0,7,7,0,no
14,1,1,1,0,4,1,1,14,0,14,14,0,no
4,1,0,0,0,1,2,1,4,0,3,2,0,no
15,1,2,1,0,1,1,1,15,0,15,15,0,no
4,1,0,0,0,1,1,1,4,0,4,4,0,no
8,2,0,0,0,4,1,1,8,0,8,8,0,no
5,0,0,0,0,1,1,1,5,0,5,5,0,no
5,1,1,1,0,0,1,1,5,0,5,5,0,no
14,1,1,2,0,3,1,1,14,0,14,14,0,no
19,2,3,3,0,4,2,1,19,0,18,9.5,0,no
16,1,3,2,0,2,5,2,18,2,12,4,0,no
12,2,1,1,0,2,3,1,2,3,2,1.666667,0,no
25,0,5,3,1,5,1,1,25,0,25,25,0,no
9,1,2,2,0,2,0,0,0,0,0,0,0,no
5,0,1,1,0,0,0,0,0,0,0,0,0,no
17,1,2,1,1,4,2,1,1,3,2,2,0,no
3,0,0,0,0,0,1,1,3,0,3,3,0,no
26,1,4,2,2,6,2,1,5,1,4,3,0,no
3,0,0,0,0,0,1,1,3,0,3,3,0,no
9,1,2,2,0,2,1,1,9,0,9,9,0,no
39,3,6,1,2,11,1,1,1,1,2,2,0,no
22,1,4,2,3,3,2,1,23,1,22,12,0,no
21,1,4,2,1,2,2,1,21,0,19,10.5,0,no
47,2,8,2,2,10,2,1,47,0,46,23.5,0,no
14,2,1,2,2,2,1,1,1,1,2,2,0,no
12,0,2,2,0,0,4,2,11,4,5,3.75,0,yes
3,1,0,0,0,0,1,1,3,0,3,3,0,no
0,1,0,0,1,0,1,1,0,0,0,0,0,no
0,3,0,0,1,0,1,1,0,0,0,0,0,no
5,2,0,0,0,0,2,1,5,0,4,2.5,0,no
31,1,7,3,1,1,4,1,32,1,26,8.25,0,no
9,1,2,1,1,1,1,1,9,0,9,9,0,no
7,1,1,1,0,0,1,1,7,0,7,7,0,no
3,0,0,0,0,0,1,1,3,0,3,3,0,no
4,0,0,0,0,0,1,1,4,0,4,4,0,no
3,2,0,0,0,0,1,1,0,8,8,8,1,no
13,2,2,2,0,2,2,1,13,0,12,6.5,1,no
31,0,7,3,0,3,3,1,32,1,29,11,0,yes
10,0,2,2,0,0,2,2,2,2,2,2,0,no
8,0,1,1,0,1,1,1,1,0,1,1,0,no
3,0,0,0,0,0,0,0,0,0,0,0,0,no
21,2,3,3,0,3,1,1,2,0,2,2,0,no
10,0,0,0,0,1,1,1,10,0,10,10,0,yes
22,1,4,1,2,3,2,2,30,8,30,19,0,no
31,1,8,6,0,5,3,3,31,0,23,10.333333,0,no
8,1,1,1,0,2,1,1,8,0,8,8,0,no
20,2,5,3,1,3,2,2,20,0,18,10,0,no
47,1,7,3,4,8,1,1,47,0,47,47,0,no
22,1,4,2,1,2,1,1,22,0,22,22,0,no
4,1,0,0,0,1,1,1,4,0,4,4,0,no
34,1,5,4,0,5,2,2,34,0,30,17,0,no
54,1,8,4,0,10,3,3,54,0,48,18,0,yes
9,2,2,1,3,0,1,1,9,0,9,9,0,no
20,2,5,4,0,3,1,1,20,0,20,20,0,no
3,2,0,0,0,0,2,2,6,3,6,4.5,0,no
5,1,1,1,0,0,1,1,5,0,5,5,0,no
38,5,8,2,2,0,1,1,38,0,38,38,0,no
19,1,3,1,3,1,1,1,19,0,19,19,0,yes
32,1,6,2,1,5,1,1,32,0,32,32,0,yes
14,0,4,3,1,3,2,1,15,1,14,8,0,no
12,0,1,1,0,0,2,1,13,1,12,7,0,no
7,2,0,0,1,2,2,2,11,4,11,7.5,0,no
24,1,5,2,2,4,4,3,25,1,11,6.5,0,yes
5,1,1,1,0,0,1,1,5,0,5,5,0,no
28,0,4,2,0,1,4,3,36,8,35,11,0,yes
7,0,1,1,0,0,1,1,7,0,7,7,0,no
11,2,2,2,0,2,1,1,11,0,11,11,0,no
7,1,1,1,0,0,1,1,7,0,7,7,0,no
3,1,0,0,0,0,1,1,3,0,3,3,0,no
3,1,0,0,0,0,1,1,3,0,3,3,0,yes
3,3,0,0,0,0,1,1,3,0,3,3,0,yes
5,1,0,0,0,0,1,1,5,0,5,5,0,no
10,2,1,1,0,1,1,1,10,0,10,10,0,no
3,1,0,0,0,0,1,1,3,0,3,3,0,no
6,0,1,1,0,0,1,1,6,0,6,6,0,no
3,0,0,0,0,0,1,1,3,0,3,3,0,no
7,1,1,1,0,1,1,1,7,0,7,7,0,no
5,0,0,0,0,1,1,1,5,0,5,5,0,no
3,1,0,0,0,0,1,1,3,0,3,3,0,no
3,1,0,0,0,0,1,1,3,0,3,3,0,no
3,3,0,0,0,0,1,1,3,0,3,3,0,no
0,2,0,0,0,0,1,1,0,0,0,0,0,no
0,1,0,0,0,0,1,1,0,0,0,0,0,no
3,1,0,0,0,0,1,1,3,0,3,3,0,no
12,2,1,1,0,1,2,1,13,1,12,7,0,no
11,1,1,1,0,1,2,1,12,1,11,6.5,0,no
5,2,0,0,0,0,1,1,5,0,5,5,0,no
9,1,0,0,0,3,1,1,9,0,9,9,0,no
22,0,4,1,0,1,2,2,24,2,24,13,0,no
11,2,2,1,0,1,2,2,12,1,11,6.5,0,no
3,0,0,0,0,0,1,1,3,0,3,3,0,no
3,0,0,0,1,0,1,1,3,0,3,3,0,no
3,1,0,0,0,0,1,1,3,0,3,3,0,no
3,1,0,0,0,0,1,1,3,0,3,3,0,no
3,2,0,0,0,0,1,1,3,0,3,3,0,no
9,0,1,1,0,0,2,1,9,0,5,4.5,0,no
3,0,0,0,0,0,1,1,3,0,3,3,0,no
3,1,0,0,0,0,1,1,3,0,3,3,0,no
3,3,0,0,0,0,1,1,3,0,3,3,0,no
12,1,1,1,0,0,1,1,12,0,12,12,0,no
11,2,2,2,0,2,1,1,11,0,11,11,0,no
16,0,4,4,1,5,2,2,16,0,14,8,0,no
3,0,0,0,0,0,1,1,3,0,3,3,0,no
3,0,0,0,0,0,1,1,3,0,3,3,0,no
21,2,4,3,0,6,1,1,21,0,21,21,0,no
6,3,0,0,0,2,1,1,6,0,6,6,0,no
3,0,0,0,0,0,1,1,3,0,3,3,0,no
27,1,6,2,1,4,2,2,28,1,27,14.5,0,no
3,0,0,0,0,0,1,1,3,0,3,3,0,no
63,0,11,6,0,8,3,2,63,0,58,21,0,yes
38,3,6,3,0,6,1,1,38,0,38,38,0,no
12,0,2,2,0,0,1,1,12,0,12,12,0,no
6,1,1,1,0,0,1,1,6,0,6,6,0,no
0,1,0,0,1,0,1,1,0,0,0,0,0,no
7,1,1,1,1,0,2,2,8,1,7,4.5,0,no
0,3,0,0,1,0,1,1,0,0,0,0,0,no
4,2,0,0,0,0,1,1,4,0,4,4,0,no
3,0,0,0,0,0,1,1,3,0,3,3,0,no
3,0,0,0,0,0,1,1,3,0,3,3,0,no
3,0,0,0,0,0,1,1,3,0,3,3,0,no
3,0,0,0,0,0,1,1,3,0,3,3,0,no
29,0,5,4,1,8,2,2,29,0,23,14.5,0,no
20,0,3,2,2,5,2,2,21,1,20,11,0,no
4,2,0,0,0,0,1,1,4,0,4,4,0,no
5,0,0,0,0,1,1,1,5,0,5,5,0,no
7,5,0,0,0,0,1,1,7,0,7,7,0,no
3,2,0,0,0,0,1,1,3,0,3,3,0,no
52,3,7,4,0,6,1,1,52,0,52,52,0,no
3,0,0,0,0,0,1,1,3,0,3,3,0,no
6,0,1,1,0,0,1,1,6,0,6,6,0,no
3,0,0,0,0,0,1,1,3,0,3,3,0,no
7,0,1,1,0,0,1,1,7,0,7,7,0,no
3,1,0,0,0,0,1,1,3,0,3,3,0,no
0,1,0,0,0,0,3,1,2,25,23,9,1,no
0,1,0,0,0,0,4,1,2,97,66,24.75,0,no
0,2,0,0,0,0,3,1,2,21,19,7.666667,0,no
0,0,0,0,0,0,1,1,0,0,0,0,0,no
0,1,0,0,0,0,2,1,1,21,20,11,0,no
0,1,0,0,0,0,1,1,0,0,0,0,0,no
0,3,0,0,0,0,2,1,1,18,17,9.5,0,no
0,1,0,0,0,0,1,1,0,0,0,0,0,no
0,2,0,0,0,0,1,1,0,0,0,0,0,no
15,2,1,1,2,0,1,1,15,0,15,15,0,no
8,0,2,2,0,2,1,1,8,0,8,8,0,no
36,1,4,2,1,2,4,3,37,1,23,9.5,0,no
7,0,1,1,0,1,1,1,7,0,7,7,0,no
10,1,2,2,0,3,1,1,10,0,10,10,0,no
29,1,7,3,0,2,1,1,29,0,29,29,0,no
73,1,14,4,2,16,2,1,74,1,73,37.5,0,yes
19,0,7,7,0,5,1,1,19,0,19,19,0,no
3,0,0,0,0,0,1,1,3,0,3,3,0,no
15,2,2,2,0,3,2,2,19,4,19,11.5,0,no
28,2,5,3,0,4,2,1,30,2,30,16,0,no
7,3,1,1,1,1,1,1,7,0,7,7,0,no
40,0,0,0,0,0,2,1,41,1,40,21,0,no
51,1,11,5,0,10,1,1,51,0,51,51,0,no
13,3,2,2,0,1,1,1,13,0,13,13,0,no
12,1,0,0,0,3,1,1,12,0,12,12,0,no
3,0,0,0,0,0,1,1,3,0,3,3,0,no
3,0,0,0,0,0,1,1,3,0,3,3,0,no
3,0,0,0,0,0,1,1,3,0,3,3,0,no
60,2,11,3,1,6,3,2,60,0,52,20,0,no
16,2,1,1,0,1,1,1,16,0,16,16,0,no
12,1,2,2,0,2,1,1,12,0,12,12,0,no
3,1,0,0,1,0,1,1,3,0,3,3,0,no
13,3,2,1,0,3,2,2,17,4,17,10.5,0,no
8,2,1,1,1,1,1,1,8,0,8,8,0,no
18,1,2,2,0,3,2,1,20,2,20,11,0,no
10,2,1,2,0,1,2,1,10,0,7,5,0,no
19,1,3,2,0,2,1,1,19,0,19,19,0,no
26,5,7,2,0,4,2,1,27,1,26,14,0,no
3,2,0,0,0,0,1,1,3,0,3,3,0,no
3,0,0,0,0,0,1,1,3,0,3,3,0,no
3,0,0,0,0,0,1,1,3,0,3,3,0,no
3,0,0,0,0,0,1,1,3,0,3,3,0,no
3,0,0,0,0,0,1,1,3,0,3,3,0,no
3,0,0,0,0,0,1,1,3,0,3,3,0,no
3,0,0,0,0,0,1,1,3,0,3,3,0,no
3,0,0,0,0,0,1,1,3,0,3,3,0,no
3,0,0,0,0,0,1,1,3,0,3,3,0,no
3,0,0,0,0,0,1,1,3,0,3,3,0,no
0,0,0,0,1,0,1,1,0,0,0,0,0,no
0,0,0,0,1,0,1,1,0,0,0,0,0,no
0,0,0,0,1,0,1,1,0,0,0,0,0,no
0,0,0,0,1,0,1,1,0,0,0,0,0,no
0,0,0,0,1,0,1,1,0,0,0,0,0,no
0,0,0,0,1,0,1,1,0,0,0,0,0,no
0,0,0,0,1,0,1,1,0,0,0,0,0,no
0,1,0,0,0,0,1,1,0,11,11,11,0,no
0,1,0,0,0,0,2,1,16,16,16,16,0,no
5,3,0,0,0,1,1,1,5,0,5,5,0,no
6,2,1,1,0,0,1,1,6,0,6,6,0,no
0,0,0,0,0,0,2,1,3,3,3,3,0,no
0,0,0,0,0,0,2,1,3,3,3,3,0,no
0,1,0,0,0,0,5,1,6,45,32,10.2,0,no
0,0,0,0,0,0,2,1,3,3,3,3,0,no
5,3,0,0,0,0,1,1,5,0,5,5,0,no
8,1,1,1,0,1,2,1,11,3,11,7,0,no
5,1,1,1,0,0,1,1,5,0,5,5,0,no
3,0,0,0,0,0,1,1,3,0,3,3,0,no
3,0,0,0,0,0,1,1,3,0,3,3,0,yes
3,1,0,0,0,0,2,1,11,8,11,9.5,0,no
3,0,0,0,0,0,1,1,3,0,3,3,0,yes
3,2,0,0,0,0,1,1,3,0,3,3,0,no
4,1,0,0,0,0,1,1,4,0,4,4,0,no
4,1,0,0,0,0,1,1,4,0,4,4,0,no
4,0,0,0,0,0,1,1,4,0,4,4,0,no
5,2,0,0,0,0,1,1,5,0,5,5,0,no
5,0,1,1,0,0,0,0,0,0,0,0,0,no
8,1,1,1,0,1,1,1,4,0,4,4,0,no
3,0,0,0,0,0,0,0,0,0,0,0,0,no
8,0,2,2,0,1,1,1,1,1,2,2,0,no
3,0,0,0,0,0,0,0,0,0,0,0,0,no
4,1,0,0,0,0,0,0,0,0,0,0,0,no
5,0,0,0,0,0,0,0,0,0,0,0,0,no
3,0,0,0,0,0,0,0,0,0,0,0,0,no
3,0,0,0,0,0,0,0,0,0,0,0,0,no
3,0,0,0,0,0,0,0,0,0,0,0,0,no
3,0,0,0,0,0,0,0,0,0,0,0,0,no
3,0,0,0,0,0,0,0,0,0,0,0,0,no
3,0,0,0,0,0,0,0,0,0,0,0,0,no
10,1,2,2,0,0,0,0,0,0,0,0,0,no
6,0,1,1,0,0,0,0,0,0,0,0,0,no
3,1,0,0,1,0,0,0,0,0,0,0,0,no
6,1,1,1,0,0,1,1,1,1,2,2,0,no
3,1,0,0,0,0,0,0,0,0,0,0,0,no
6,2,0,0,0,0,0,0,0,0,0,0,0,no
9,0,1,0,0,1,0,0,0,0,0,0,0,no
3,0,0,0,0,0,0,0,0,0,0,0,0,no
3,0,0,0,0,0,0,0,0,0,0,0,0,no
6,0,0,0,0,0,0,0,0,0,0,0,0,no
0,1,0,0,0,0,1,1,0,0,0,0,0,no
0,0,0,0,0,0,1,1,0,0,0,0,0,no
0,2,0,0,0,0,1,1,0,0,0,0,0,no
0,0,0,0,0,0,1,1,0,0,0,0,0,no
0,0,0,0,0,0,1,1,0,0,0,0,0,no
0,1,0,0,0,0,1,1,0,0,0,0,0,no
0,1,0,0,0,0,1,1,0,0,0,0,0,no
0,2,0,0,0,0,1,1,0,0,0,0,0,no
0,0,0,0,0,0,1,1,0,0,0,0,0,no
0,0,0,0,0,0,1,1,0,0,0,0,0,no
2,1,0,0,0,0,0,0,0,0,0,0,0,no
2,0,0,0,0,0,0,0,0,0,0,0,0,no
3,3,0,0,0,0,0,0,0,0,0,0,0,no
3,3,0,0,0,0,0,0,0,0,0,0,0,no
3,0,0,0,0,0,0,0,0,0,0,0,0,no
3,1,0,0,0,0,0,0,0,0,0,0,0,no
3,1,0,0,0,0,0,0,0,0,0,0,0,no
3,2,0,0,0,0,0,0,0,0,0,0,0,no
3,3,0,0,0,0,0,0,0,0,0,0,0,no
3,0,0,0,0,0,0,0,0,0,0,0,0,no
3,3,0,0,0,0,0,0,0,0,0,0,0,no
3,3,0,0,0,0,0,0,0,0,0,0,0,no
3,1,0,0,0,0,0,0,0,0,0,0,0,no
3,3,0,0,0,0,0,0,0,0,0,0,0,no
3,1,0,0,0,0,0,0,0,0,0,0,0,no
3,2,0,0,0,0,0,0,0,0,0,0,0,no
3,3,0,0,0,0,0,0,0,0,0,0,0,no
3,1,0,0,0,0,1,1,3,0,3,3,0,no
3,2,0,0,0,0,1,1,3,0,3,3,0,no
3,0,0,0,0,0,1,1,3,0,3,3,0,no
2,0,0,0,0,0,1,1,2,0,2,2,0,no
3,1,0,0,0,0,1,1,3,0,3,3,0,no
4,2,0,0,0,0,1,1,4,0,4,4,0,no
0,4,0,0,0,0,0,0,0,0,0,0,0,no
0,3,0,0,0,0,0,0,0,0,0,0,0,no
0,3,0,0,0,0,0,0,0,0,0,0,0,no
0,2,0,0,0,0,0,0,0,0,0,0,0,no
0,3,0,0,1,0,0,0,0,0,0,0,0,no
0,4,0,0,0,0,0,0,0,0,0,0,0,no
0,3,0,0,0,0,1,1,0,0,0,0,0,no
0,2,0,0,0,0,0,0,0,0,0,0,0,no
22,1,1,1,1,1,6,3,24,2,12,4.333333,0,no
4,2,0,0,0,0,1,1,4,0,4,4,0,no
17,3,2,1,0,0,6,3,19,2,11,3.5,1,no
3,1,0,0,0,0,1,1,0,9,9,9,0,no
3,6,0,0,1,0,2,2,7,7,7,7,0,no
3,3,0,0,1,0,2,2,7,7,7,7,0,no
3,5,0,0,1,0,4,3,9,9,7,4.5,0,no
3,5,0,0,1,0,4,3,11,8,7,4.75,0,no
12,0,2,1,0,0,3,1,13,1,12,4.666667,1,yes
3,2,0,0,0,0,0,0,0,0,0,0,0,no
11,4,1,1,1,1,1,1,1,1,2,2,0,no
13,1,2,2,1,1,2,1,4,1,3,2.5,0,yes
3,0,0,0,0,0,0,0,0,0,0,0,0,no
3,0,0,0,0,0,1,1,3,0,3,3,0,no
3,0,0,0,0,0,1,1,3,0,3,3,1,no
3,0,0,0,0,0,0,0,0,0,0,0,0,no
9,3,1,1,1,1,1,1,1,1,2,2,0,no
9,3,1,1,1,1,2,1,10,1,9,5.5,0,no
4,1,0,0,1,0,2,2,1,2,2,1.5,0,no
6,3,0,0,0,1,1,1,6,0,6,6,0,no
5,2,0,0,0,1,1,1,5,0,5,5,0,no
7,3,0,0,1,1,1,1,7,0,7,7,0,no
0,0,0,0,1,0,1,1,0,0,0,0,0,no
0,1,0,0,1,0,1,1,0,0,0,0,0,no
19,1,2,1,0,1,3,2,19,0,13,6.333333,0,no
3,1,0,0,0,0,2,1,11,8,11,9.5,0,no
13,4,1,1,2,0,3,2,15,2,13,5.666667,1,no
4,0,0,0,0,0,1,1,4,0,4,4,0,no
19,5,0,0,1,2,2,1,26,7,26,16.5,1,no
28,4,4,3,2,3,3,2,30,2,28,10.666667,0,no
3,1,0,0,1,0,1,1,3,0,3,3,0,no
3,1,0,0,1,0,1,1,3,0,3,3,0,no
9,2,1,1,1,1,1,1,9,0,9,9,1,no
23,2,2,1,2,2,2,2,23,0,19,11.5,1,no
80,4,15,3,5,14,2,2,80,0,53,40,1,no
29,6,7,2,1,7,3,3,30,1,25,10.333333,1,no
28,4,3,2,2,3,1,1,28,0,28,28,0,no
17,4,3,2,2,2,3,1,22,5,21,9,1,no
8,3,1,1,2,0,1,1,8,0,8,8,0,no
70,3,14,3,5,12,4,3,93,23,65,29,1,no
8,3,1,1,1,0,1,1,8,0,8,8,0,no
3,2,0,0,0,0,1,1,3,0,3,3,1,no
23,4,3,2,2,3,3,2,24,1,21,8.333333,1,no
10,5,2,2,1,0,2,2,10,0,8,5,1,no
9,2,0,0,2,1,2,2,9,0,8,4.5,1,no
6,1,1,1,0,0,2,2,6,0,5,3,0,no
3,1,0,0,0,0,1,1,3,0,3,3,1,no
3,3,0,0,0,0,1,1,3,0,3,3,1,no
7,5,0,0,0,0,1,1,7,0,7,7,0,no
8,3,1,1,1,0,2,2,12,4,12,8,1,no
7,0,0,0,0,2,1,1,7,0,7,7,0,no
24,4,3,2,4,0,2,2,24,0,13,12,1,no
9,2,1,1,1,0,1,1,9,0,9,9,0,no
4,0,0,0,0,0,2,2,4,0,3,2,1,no
5,2,0,0,0,0,1,1,5,0,5,5,0,no
3,1,0,0,0,0,0,0,0,0,0,0,0,no
22,2,4,2,1,3,0,0,0,0,0,0,0,no
3,1,0,0,1,0,0,0,0,0,0,0,0,no
3,0,0,0,0,0,0,0,0,0,0,0,0,no
3,1,0,0,0,0,0,0,0,0,0,0,0,no
26,4,4,2,1,4,2,1,6,0,5,3,0,no
3,0,0,0,0,0,0,0,0,0,0,0,0,no
3,1,0,0,0,0,1,1,1,1,2,2,0,no
18,0,2,1,0,2,0,0,0,0,0,0,0,no
9,4,1,1,0,0,0,0,0,0,0,0,0,no
3,0,0,0,0,0,0,0,0,0,0,0,0,no
3,1,0,0,0,0,0,0,0,0,0,0,0,no
3,0,0,0,0,0,0,0,0,0,0,0,0,no
7,0,0,0,0,2,1,1,1,1,2,2,0,no
3,3,0,0,0,0,1,1,1,1,2,2,0,no
3,0,0,0,0,0,1,1,3,0,3,3,0,no
4,1,0,0,0,0,0,0,0,0,0,0,0,no
17,6,0,0,0,3,1,1,17,0,17,17,0,no
0,0,0,0,0,0,0,0,0,0,0,0,0,no
0,0,0,0,0,0,0,0,0,0,0,0,0,no
10,3,3,1,0,0,0,0,0,0,0,0,0,no
3,1,0,0,0,0,0,0,0,0,0,0,0,no
0,3,0,0,0,0,0,0,0,0,0,0,0,no
3,1,0,0,0,0,1,1,1,1,2,2,0,no
3,2,0,0,0,0,0,0,0,0,0,0,0,no
24,3,4,2,2,6,0,0,0,0,0,0,0,no
5,2,0,0,0,0,0,0,0,0,0,0,0,no
8,1,0,0,0,2,2,1,2,2,2,2,0,no
4,2,0,0,0,0,1,1,4,0,4,4,0,no
0,2,0,0,1,0,0,0,0,0,0,0,0,no
0,0,0,0,1,0,1,1,0,0,0,0,0,no
0,2,0,0,1,0,0,0,0,0,0,0,0,no
0,1,0,0,1,0,1,1,0,0,0,0,0,no
8,7,0,0,0,0,0,0,0,0,0,0,0,no
12,0,1,1,0,1,3,1,11,2,9,4.333333,1,no
27,2,4,1,4,1,2,1,36,9,36,22.5,1,no
6,4,0,0,0,0,0,0,0,0,0,0,0,no
3,0,0,0,0,0,1,1,1,1,2,2,1,no
3,3,0,0,0,0,0,0,0,0,0,0,0,no
4,2,0,0,0,0,0,0,0,0,0,0,0,no
10,0,1,1,0,1,1,1,1,1,2,2,0,no
3,0,0,0,0,0,0,0,0,0,0,0,0,no
3,0,0,0,0,0,0,0,0,0,0,0,0,no
3,0,0,0,0,0,0,0,0,0,0,0,0,no
3,0,0,0,0,0,0,0,0,0,0,0,0,no
17,5,1,1,0,0,3,2,21,4,20,8.333333,0,no
3,1,0,0,0,0,2,2,1,6,5,3.5,0,yes
13,3,2,1,0,1,4,2,14,1,8,3.75,0,yes
4,1,0,0,0,0,0,0,0,0,0,0,0,no
3,3,0,0,0,0,1,1,0,26,26,26,0,no
4,5,0,0,1,1,3,2,37,33,33,23.333333,1,no
3,2,0,0,0,0,1,1,1,1,2,2,0,no
58,3,5,3,4,2,3,3,58,0,30,19.333333,0,no
11,4,2,1,0,0,0,0,0,0,0,0,0,yes
15,2,1,1,0,1,3,2,16,1,12,5.666667,0,no
4,5,0,0,1,1,1,1,4,0,4,4,0,no
9,0,1,1,0,1,2,1,4,1,3,2.5,1,no
36,6,4,1,4,3,3,2,37,1,32,12.666667,0,no
6,1,1,1,0,1,0,0,0,0,0,0,0,no
3,0,0,0,0,0,0,0,0,0,0,0,0,no
3,0,0,0,0,0,0,0,0,0,0,0,0,no
3,0,0,0,0,0,0,0,0,0,0,0,0,no
3,0,0,0,0,0,0,0,0,0,0,0,0,no
3,0,0,0,0,0,0,0,0,0,0,0,0,no
3,0,0,0,0,0,0,0,0,0,0,0,0,no
3,0,0,0,0,0,1,1,1,1,2,2,0,no
3,0,0,0,0,0,0,0,0,0,0,0,0,no
3,0,0,0,0,0,0,0,0,0,0,0,0,no
64,2,9,3,5,4,3,3,28,1,26,9.666667,1,yes
7,1,1,1,0,0,2,1,5,1,4,3,0,no
10,2,1,1,0,1,1,1,1,1,2,2,0,no
12,0,2,1,1,1,2,1,13,1,12,7,0,no
37,1,5,2,2,0,3,2,30,0,25,10,0,no
19,1,2,1,1,1,3,2,20,1,18,7,1,no
11,0,2,2,0,1,0,0,0,0,0,0,0,no
6,2,1,1,0,0,2,1,4,1,3,2.5,1,no
15,5,2,1,1,1,2,2,15,0,14,7.5,0,no
10,2,1,1,0,0,2,2,11,1,10,6,0,no
4,0,0,0,0,1,1,1,4,0,4,4,0,no
53,0,5,3,4,2,4,3,41,2,30,10.75,0,no
33,4,4,3,3,0,1,1,33,0,33,33,0,no
20,2,2,2,2,0,1,1,20,0,20,20,0,no
21,4,3,2,1,0,3,2,6,0,4,2,1,no
8,2,1,1,0,0,1,1,8,0,8,8,0,no
39,4,6,3,3,1,2,2,40,1,39,20.5,0,no
34,0,6,3,3,1,2,2,35,1,34,18,0,yes
18,2,3,2,2,0,2,2,19,1,18,10,0,no
3,0,0,0,0,0,3,2,5,2,3,2.333333,0,no
3,0,0,0,0,0,1,1,3,0,3,3,0,no
3,0,0,0,0,0,1,1,3,0,3,3,0,no
3,0,0,0,1,0,3,2,5,2,3,2.333333,0,no
3,1,0,0,0,0,1,1,3,0,3,3,0,no
3,1,0,0,0,0,1,1,3,0,3,3,0,no
5,3,1,1,1,0,1,1,3,0,3,3,1,no
5,4,0,0,0,1,1,1,5,0,5,5,0,yes
8,3,0,0,1,1,1,1,8,0,8,8,0,no
9,4,0,0,1,1,1,1,9,0,9,9,0,no
8,3,0,0,1,1,1,1,8,0,8,8,0,no
3,0,0,0,0,0,0,0,0,0,0,0,0,no
7,2,0,0,1,0,1,1,1,0,1,1,0,no
5,2,0,0,1,0,0,0,0,0,0,0,0,no
3,1,0,0,0,0,0,0,0,0,0,0,0,no
3,1,0,0,1,0,0,0,0,0,0,0,0,no
3,0,0,0,0,0,0,0,0,0,0,0,0,no
8,1,1,1,0,1,0,0,0,0,0,0,0,no
3,0,0,0,0,0,1,1,3,0,3,3,1,no
3,0,0,0,0,0,1,1,1,1,2,2,0,no
3,0,0,0,0,0,1,1,3,0,3,3,0,no
3,0,0,0,0,0,1,1,3,0,3,3,0,no
43,2,8,3,7,8,2,2,43,0,32,21.5,1,no
23,1,5,2,0,5,2,2,24,1,23,12.5,0,yes
19,0,4,2,0,3,1,1,1,0,1,1,0,no
3,1,0,0,0,0,1,1,3,0,3,3,1,no
3,1,0,0,0,0,1,1,3,0,3,3,0,no
9,6,0,0,0,0,1,1,9,0,9,9,0,no
3,0,0,0,0,0,1,1,1,1,2,2,1,no
4,0,0,0,0,0,1,1,4,0,4,4,0,no
63,5,11,3,4,1,6,1,19,3,13,3.666667,1,no
9,2,2,2,0,0,1,1,2,0,2,2,0,no
8,3,1,1,0,0,1,1,8,0,8,8,1,no
5,2,0,0,0,0,0,0,0,0,0,0,0,no
8,4,1,1,1,0,1,1,1,1,2,2,0,no
4,0,0,0,0,0,0,0,0,0,0,0,0,no
16,0,2,2,0,1,5,2,13,2,8,3,0,no
30,4,3,2,4,2,4,2,13,2,9,3.75,1,no
9,3,1,1,2,0,1,1,9,0,9,9,1,no
11,2,2,2,0,0,2,1,11,0,9,5.5,0,no
4,2,0,0,0,0,1,1,0,3,3,3,0,no
6,2,0,0,0,1,0,0,0,0,0,0,0,no
3,0,0,0,0,0,0,0,0,0,0,0,0,no
3,0,0,0,0,0,1,1,1,1,2,2,0,no
3,3,0,0,0,0,1,1,1,1,2,2,0,no
12,0,1,1,0,3,1,1,12,0,12,12,0,no
9,5,0,0,0,0,0,0,0,0,0,0,0,no
3,0,0,0,0,0,0,0,0,0,0,0,0,no
18,0,3,2,1,4,0,0,0,0,0,0,0,yes
7,3,0,0,2,2,0,0,0,0,0,0,0,no
3,0,0,0,0,0,0,0,0,0,0,0,0,no
33,5,7,2,1,2,1,1,7,0,7,7,0,yes
10,3,1,1,1,1,3,2,3,2,2,1.666667,0,no
3,0,0,0,0,0,0,0,0,0,0,0,0,no
3,1,0,0,2,0,0,0,0,0,0,0,0,yes
7,2,0,0,0,0,3,2,9,2,7,3.666667,0,no
5,0,1,1,0,1,5,2,9,4,5,2.6,0,no
5,0,1,1,0,1,2,1,5,0,3,2.5,0,no
35,5,8,3,2,3,6,2,37,2,25,6.5,1,no
0,2,0,0,1,0,1,1,0,0,0,0,0,no
3,5,0,0,0,0,1,1,3,0,3,3,0,no
3,1,0,0,0,0,1,1,3,0,3,3,0,yes
4,3,0,0,1,0,1,1,4,0,4,4,0,no
3,3,0,0,0,0,1,1,3,0,3,3,0,no
4,5,0,0,1,0,2,2,5,1,4,3,0,no
3,2,0,0,0,0,1,1,3,0,3,3,0,no
2,0,0,0,0,0,1,1,2,0,2,2,0,no
4,2,0,0,0,0,0,0,0,0,0,0,0,no
3,2,0,0,0,0,0,0,0,0,0,0,0,no
3,0,0,0,0,0,1,1,3,0,3,3,0,no
4,2,1,0,0,1,0,0,0,0,0,0,0,no
4,0,0,0,0,0,1,1,4,0,4,4,0,no
16,1,4,3,0,2,1,1,16,0,16,16,0,no
9,1,2,2,0,1,0,0,0,0,0,0,0,no
4,0,0,0,0,0,0,0,0,0,0,0,0,no
3,0,0,0,0,0,0,0,0,0,0,0,0,no
3,0,0,0,0,0,0,0,0,0,0,0,0,no
3,0,0,0,0,0,0,0,0,0,0,0,0,no
4,0,0,0,0,0,0,0,0,0,0,0,0,no
3,1,0,0,0,0,0,0,0,0,0,0,0,no
3,1,0,0,0,0,0,0,0,0,0,0,0,no
3,1,0,0,0,0,0,0,0,0,0,0,0,no
3,0,0,0,0,0,0,0,0,0,0,0,0,no
4,0,0,0,0,0,1,1,4,0,4,4,0,no
3,0,0,0,0,0,1,1,3,0,3,3,1,no
3,0,0,0,0,0,1,1,3,0,3,3,0,no
3,0,0,0,0,0,1,1,3,0,3,3,1,no
3,1,0,0,0,0,1,1,3,0,3,3,0,no
3,1,0,0,0,0,1,1,3,0,3,3,0,no
4,1,0,0,0,1,1,1,4,0,4,4,0,no
3,1,0,0,0,0,1,1,3,0,3,3,1,no
3,1,0,0,0,0,1,1,3,0,3,3,1,no
3,0,0,0,0,0,1,1,3,0,3,3,0,no
4,1,0,0,0,0,1,1,4,0,4,4,0,no
3,0,0,0,0,0,1,1,3,0,3,3,0,no
3,0,0,0,0,0,1,1,3,0,3,3,0,no
3,0,0,0,0,0,1,1,3,0,3,3,0,no
3,0,0,0,0,0,1,1,3,0,3,3,0,no
3,0,0,0,0,0,1,1,3,0,3,3,0,no
3,0,0,0,0,0,1,1,3,0,3,3,0,no
7,0,1,1,1,1,2,1,7,0,4,3.5,0,no
3,0,0,0,0,0,1,1,3,0,3,3,0,no
4,1,0,0,0,0,2,1,5,1,4,3,1,no
4,1,0,0,0,0,2,1,5,1,4,3,1,no
4,1,0,0,0,0,2,1,5,1,4,3,1,no
4,1,0,0,0,0,1,1,4,0,4,4,0,no
4,1,0,0,0,0,1,1,4,0,4,4,0,no
4,1,0,0,0,0,2,1,5,1,4,3,1,no
4,1,0,0,0,0,2,1,5,1,4,3,1,no
4,1,0,0,0,0,3,1,6,2,4,2.666667,1,no
3,0,0,0,0,0,1,1,3,0,3,3,0,no
4,1,0,0,0,0,1,1,4,0,4,4,0,no
3,0,0,0,0,0,1,1,3,0,3,3,0,no
3,0,0,0,0,0,1,1,3,0,3,3,0,no
3,0,0,0,0,0,1,1,3,0,3,3,0,no
3,0,0,0,0,0,1,1,3,0,3,3,0,no
3,0,0,0,0,0,1,1,3,0,3,3,0,no
7,0,1,1,0,1,1,1,7,0,7,7,0,no
3,0,0,0,0,0,1,1,3,0,3,3,0,no
7,0,1,1,0,1,2,2,8,1,7,4.5,0,no
11,0,2,1,1,3,1,1,11,0,11,11,0,no
3,0,0,0,0,0,1,1,3,0,3,3,0,no
3,0,0,0,0,0,1,1,3,0,3,3,0,no
3,0,0,0,0,0,1,1,3,0,3,3,0,no
3,0,0,0,0,0,1,1,3,0,3,3,0,no
3,0,0,0,0,0,1,1,3,0,3,3,0,no
3,0,0,0,0,0,1,1,3,0,3,3,0,no
3,0,0,0,0,0,1,1,3,0,3,3,0,no
3,0,0,0,0,0,1,1,3,0,3,3,0,no
3,0,0,0,0,0,1,1,3,0,3,3,0,no
3,0,0,0,0,0,1,1,3,0,3,3,0,no
7,0,1,1,1,1,2,1,7,0,4,3.5,0,no
3,0,0,0,0,0,1,1,3,0,3,3,0,no
3,0,0,0,0,0,1,1,3,0,3,3,0,no
4,1,0,0,0,0,2,1,5,1,4,3,1,no
4,1,0,0,0,0,2,1,5,1,4,3,1,no
4,1,0,0,0,0,2,1,5,1,4,3,1,no
4,1,0,0,0,0,2,1,5,1,4,3,1,no
4,1,0,0,0,0,2,1,5,1,4,3,1,no
7,1,1,1,0,0,3,2,9,2,7,3.666667,1,no
4,1,0,0,0,0,1,1,4,0,4,4,0,no
4,1,0,0,0,0,1,1,4,0,4,4,0,no
4,1,0,0,0,0,2,1,5,1,4,3,1,no
4,1,0,0,0,0,2,1,5,1,4,3,1,no
4,1,0,0,0,0,1,1,4,0,4,4,0,no
4,1,0,0,0,0,1,1,4,0,4,4,0,no
4,1,0,0,0,0,1,1,4,0,4,4,0,no
4,1,0,0,0,0,1,1,4,0,4,4,0,no
4,1,0,0,0,0,1,1,4,0,4,4,0,no
4,1,0,0,0,0,2,1,5,1,4,3,1,no
4,1,0,0,0,0,1,1,4,0,4,4,0,no
4,1,0,0,0,0,2,1,5,1,4,3,1,no
4,1,0,0,0,0,3,1,6,2,4,2.666667,1,no
3,0,0,0,0,0,1,1,3,0,3,3,0,no
3,0,0,0,0,0,1,1,3,0,3,3,0,no
15,2,2,1,2,2,2,1,16,1,15,8.5,0,no
9,3,2,2,1,2,1,1,9,0,9,9,0,no
5,3,0,0,0,0,1,1,5,0,5,5,1,no
16,2,2,1,1,0,1,1,16,0,16,16,1,no
22,6,4,1,1,2,1,1,22,0,22,22,1,no
2,0,0,0,1,0,1,1,2,0,2,2,1,no
28,2,5,2,2,2,1,1,28,0,28,28,1,no
8,3,2,2,0,1,1,1,8,0,8,8,0,no
28,1,4,1,1,1,3,2,29,1,25,10,1,no
6,1,1,1,1,0,2,2,7,1,6,4,1,no
23,4,5,2,2,2,1,1,23,0,23,23,1,no
11,3,2,1,1,0,1,1,11,0,11,11,1,no
10,2,1,1,0,0,1,1,17,0,17,17,1,no
17,2,4,1,1,2,1,1,17,0,17,17,1,no
8,4,1,1,0,0,2,2,9,1,8,5,1,no
3,2,0,0,0,0,1,1,3,0,3,3,1,no
3,5,0,0,0,0,1,1,3,0,3,3,1,no
3,1,0,0,0,0,1,1,3,0,3,3,1,no
15,1,3,2,2,2,2,2,16,1,15,8.5,1,yes
10,1,1,1,0,2,1,1,10,0,10,10,1,no
5,1,0,0,0,1,1,1,5,0,5,5,1,no
14,2,1,1,0,1,1,1,14,0,14,14,0,no
3,1,0,0,0,0,1,1,3,0,3,3,1,no
8,4,1,1,0,0,2,1,8,0,7,4,1,no
12,4,2,1,0,0,2,2,13,1,12,7,1,no
3,2,0,0,0,0,1,1,3,0,3,3,1,no
19,5,1,1,0,2,1,1,19,0,19,19,1,no
24,6,2,1,2,1,1,1,24,0,24,24,1,no
8,0,1,1,0,0,1,1,8,0,8,8,1,no
3,1,0,0,0,0,1,1,3,0,3,3,1,no
14,4,1,1,0,6,1,1,14,0,14,14,0,no
21,1,5,4,1,5,3,2,22,1,20,7.666667,1,yes
3,2,0,0,0,0,1,1,3,0,3,3,1,no
12,1,2,1,0,2,1,1,11,0,11,11,1,no
11,1,2,2,0,2,1,1,11,0,11,11,1,no
10,1,1,1,0,2,1,1,10,0,10,10,1,no
6,1,0,0,0,2,1,1,6,0,6,6,1,no
3,2,0,0,0,0,1,1,3,0,3,3,1,no
3,1,0,0,0,0,1,1,3,0,3,3,0,no
50,2,5,2,3,3,1,1,50,0,50,50,0,no
3,1,0,0,0,0,1,1,3,0,3,3,1,no
19,3,2,1,2,1,1,1,19,0,19,19,1,no
9,4,1,1,1,1,1,1,9,0,9,9,1,no
14,2,1,1,0,2,1,1,14,0,14,14,1,no
4,2,0,0,0,1,1,1,4,0,4,4,1,no
45,4,5,2,3,3,2,1,45,0,44,22.5,1,no
14,0,2,2,1,0,1,1,14,0,14,14,1,no
9,3,2,2,1,0,1,1,9,0,9,9,1,no
8,4,1,1,0,0,2,1,8,0,7,4,1,no
3,1,0,0,0,0,1,1,3,0,3,3,1,no
32,6,3,1,2,7,1,1,32,0,32,32,1,no
19,3,2,1,1,3,1,1,19,0,19,19,1,no
3,0,0,0,1,0,1,1,3,0,3,3,1,no
4,2,0,0,0,0,1,1,4,0,4,4,1,no
10,1,2,1,0,1,1,1,10,0,10,10,1,no
3,0,0,0,0,0,1,1,3,0,3,3,1,no
3,0,0,0,0,0,1,1,3,0,3,3,1,no
3,0,0,0,0,0,1,1,3,0,3,3,0,no
25,1,5,2,2,6,1,1,25,0,25,25,1,no
15,2,2,2,0,3,1,1,15,0,15,15,1,no
8,0,1,1,0,1,1,1,8,0,8,8,1,no
4,2,0,0,0,1,1,1,4,0,4,4,1,no
5,0,0,0,0,1,1,1,5,0,5,5,1,no
0,2,0,0,1,0,1,1,0,0,0,0,1,no
0,5,0,0,1,0,1,1,0,0,0,0,1,no
0,0,0,0,1,0,1,1,0,0,0,0,1,no
0,1,0,0,1,0,1,1,0,0,0,0,1,no
0,1,0,0,1,0,1,1,0,0,0,0,1,no
0,1,0,0,1,0,1,1,0,0,0,0,1,no
0,1,0,0,1,0,1,1,0,0,0,0,1,no
0,2,0,0,1,0,1,1,0,0,0,0,0,no
0,1,0,0,1,0,1,1,0,0,0,0,1,no
0,1,0,0,1,0,1,1,0,0,0,0,1,no
37,2,10,3,1,4,2,1,38,1,37,19.5,1,no
5,0,0,0,0,0,1,1,5,0,5,5,0,no
8,1,0,1,0,0,1,1,8,0,8,8,0,no
8,2,0,1,0,0,1,1,8,0,8,8,0,no
10,1,0,1,0,0,1,1,10,0,10,10,0,no
22,0,2,2,0,1,1,1,22,0,22,22,0,no
5,0,1,1,0,1,1,1,5,0,5,5,0,no
5,1,1,1,0,1,1,1,5,0,5,5,0,no
7,1,1,1,0,2,1,1,7,0,7,7,0,no
3,0,0,0,0,0,1,1,3,0,3,3,0,no
3,1,0,0,0,0,1,1,3,0,3,3,0,no
3,2,0,0,0,0,1,1,3,0,3,3,0,no
8,6,1,0,0,0,1,1,8,0,8,8,0,no
3,0,0,0,0,0,1,1,3,0,3,3,0,no
3,0,0,0,0,0,1,1,3,0,3,3,0,no
3,0,0,0,0,0,1,1,3,0,3,3,0,no
3,0,0,0,0,0,1,1,3,0,3,3,0,no
3,0,0,0,0,0,1,1,3,0,3,3,0,no
3,0,0,0,0,0,1,1,3,0,3,3,0,no
2,0,0,0,1,0,1,1,2,0,2,2,0,no
8,1,0,0,0,0,1,1,8,0,8,8,0,no
12,1,3,1,0,2,1,1,12,0,12,12,0,no
3,0,0,0,0,0,1,1,3,0,3,3,0,no
11,0,3,2,0,3,1,1,11,0,11,11,0,no
21,1,5,3,0,1,1,1,21,0,21,21,0,yes
5,3,0,0,0,0,1,1,5,0,5,5,0,no
13,8,1,1,0,1,1,1,13,0,13,13,0,no
5,0,1,1,0,1,0,0,0,0,0,0,0,no
20,1,4,2,1,4,1,1,20,0,20,20,0,no
11,1,2,2,0,2,3,2,3,3,2,2,1,no
30,1,3,1,0,10,2,1,2,2,2,2,0,no
13,5,1,1,0,1,1,1,13,0,13,13,0,no
13,6,1,1,0,1,1,1,13,0,13,13,0,no
7,2,1,1,0,0,2,1,2,2,2,2,0,no
7,2,1,1,0,0,2,1,2,2,2,2,0,no
7,2,1,1,0,0,2,1,2,2,2,2,0,no
5,0,1,1,0,1,1,1,5,0,5,5,0,no
7,5,1,1,0,1,0,0,0,0,0,0,0,no
4,0,0,0,0,0,0,0,0,0,0,0,0,no
4,0,0,0,0,0,0,0,0,0,0,0,0,no
3,0,0,0,0,0,0,0,0,0,0,0,0,no
5,1,1,1,0,0,0,0,0,0,0,0,0,no
5,3,0,0,0,0,1,1,5,0,5,5,0,no
12,1,1,1,0,3,1,1,12,0,12,12,0,no
3,0,0,0,0,0,1,1,3,0,3,3,0,no
3,0,0,0,0,0,1,1,3,0,3,3,0,no
3,0,0,0,0,0,1,1,3,0,3,3,0,no
7,0,1,1,0,0,1,1,7,0,7,7,0,no
5,2,0,0,0,0,1,1,5,0,5,5,0,no
3,0,0,0,0,0,1,1,3,0,3,3,0,no
3,0,0,0,0,0,1,1,3,0,3,3,0,no
3,0,0,0,0,0,1,1,3,0,3,3,0,no
3,0,0,0,0,0,1,1,3,0,3,3,0,no
3,0,0,0,0,0,1,1,3,0,3,3,0,no
7,0,1,1,0,0,1,1,7,0,7,7,0,no
3,0,0,0,0,0,1,1,3,0,3,3,0,no
3,0,0,0,0,0,1,1,3,0,3,3,0,no
0,0,0,0,1,0,1,1,0,0,0,0,0,no
0,0,0,0,1,0,1,1,0,0,0,0,0,no
0,0,0,0,1,0,1,1,0,0,0,0,0,no
0,0,0,0,1,0,1,1,0,0,0,0,0,no
0,0,0,0,1,0,1,1,0,0,0,0,0,no
0,0,0,0,1,0,1,1,0,0,0,0,0,no
0,2,0,0,0,0,0,0,0,0,0,0,0,no
10,5,1,1,0,0,1,1,10,0,10,10,1,no
7,3,1,1,1,0,1,1,7,0,7,7,1,no
9,0,2,2,0,0,1,1,9,0,9,9,1,no
0,2,0,0,1,0,1,1,0,0,0,0,1,no
0,5,0,0,0,0,0,0,0,0,0,0,0,no
0,5,0,0,0,0,0,0,0,0,0,0,0,no
10,2,0,0,0,0,3,1,12,2,11,4.666667,0,no
5,1,0,0,0,0,0,0,0,0,0,0,0,no
13,0,2,2,1,2,0,0,0,0,0,0,0,no
3,0,0,0,0,0,0,0,0,0,0,0,0,no
3,0,0,0,0,0,0,0,0,0,0,0,0,no
31,0,5,5,2,7,1,1,1,1,2,2,1,no
12,0,2,1,0,0,0,0,0,0,0,0,0,no
12,2,1,1,0,0,2,2,4,4,4,4,1,no
35,0,7,2,4,0,0,0,0,0,0,0,0,no
3,0,0,0,0,0,0,0,0,0,0,0,0,no
76,1,17,5,3,6,1,1,1,1,2,2,0,no
8,0,2,2,0,1,0,0,0,0,0,0,0,no
6,0,1,1,0,0,1,1,6,0,6,6,0,no
3,0,0,0,0,0,0,0,0,0,0,0,0,no
3,0,0,0,0,0,0,0,0,0,0,0,0,no
3,0,0,0,0,0,0,0,0,0,0,0,0,no
11,1,2,2,0,0,0,0,0,0,0,0,0,no
7,1,1,1,1,1,0,0,0,0,0,0,0,no
4,0,0,0,0,0,0,0,0,0,0,0,0,no
21,1,5,2,3,4,0,0,0,0,0,0,0,no
13,1,2,1,0,0,1,1,13,0,13,13,0,no
3,0,0,0,0,0,0,0,0,0,0,0,0,no
5,0,0,0,0,0,1,1,2,0,2,2,0,no
3,0,0,0,0,0,0,0,0,0,0,0,0,no
3,0,0,0,0,0,0,0,0,0,0,0,0,no
8,0,1,1,1,2,0,0,0,0,0,0,0,no
0,2,0,0,1,0,0,0,0,0,0,0,0,no
2,0,0,0,1,0,0,0,0,0,0,0,0,no
5,0,1,1,1,0,0,0,0,0,0,0,0,no
3,0,0,0,0,0,0,0,0,0,0,0,0,no
5,0,1,0,0,0,0,0,0,0,0,0,0,no
3,0,0,0,0,0,0,0,0,0,0,0,0,no
3,0,1,0,0,0,0,0,0,0,0,0,0,no
5,0,1,0,0,0,0,0,0,0,0,0,0,no
3,0,0,0,0,0,0,0,0,0,0,0,0,no
3,0,0,0,0,0,0,0,0,0,0,0,0,no
3,0,0,0,0,0,0,0,0,0,0,0,0,no
3,0,0,0,0,0,0,0,0,0,0,0,0,no
3,0,0,0,0,0,0,0,0,0,0,0,0,no
3,0,0,0,0,0,0,0,0,0,0,0,0,no
4,0,0,0,0,0,0,0,0,0,0,0,0,no
3,0,0,0,0,0,0,0,0,0,0,0,0,no
3,0,0,0,0,0,0,0,0,0,0,0,0,no
4,1,0,0,0,0,0,0,0,0,0,0,0,no
5,1,0,0,0,0,0,0,0,0,0,0,0,no
12,0,1,1,0,1,0,0,0,0,0,0,0,no
3,0,0,0,0,0,0,0,0,0,0,0,0,no
11,1,2,1,0,1,0,0,0,0,0,0,0,yes
0,0,0,0,1,0,0,0,0,0,0,0,0,no
0,0,0,0,1,0,0,0,0,0,0,0,0,no
8,1,0,0,0,0,0,0,0,0,0,0,0,no
8,2,0,0,0,0,0,0,0,0,0,0,0,no
2,0,0,0,0,0,0,0,0,0,0,0,0,no
11,0,2,1,1,2,0,0,0,0,0,0,0,no
14,1,2,1,0,3,0,0,0,0,0,0,0,no
14,3,2,1,0,3,0,0,0,0,0,0,0,no
23,0,4,2,0,3,0,0,0,0,0,0,0,no
5,1,0,0,0,0,0,0,0,0,0,0,0,no
5,2,0,0,0,0,0,0,0,0,0,0,0,no
3,0,0,0,0,0,0,0,0,0,0,0,0,no
15,0,3,2,2,1,0,0,0,0,0,0,0,no
10,1,2,2,0,0,0,0,0,0,0,0,0,no
14,1,3,2,0,0,0,0,0,0,0,0,0,no
7,3,1,1,0,0,0,0,0,0,0,0,0,no
5,1,0,0,0,1,0,0,0,0,0,0,0,no
25,1,4,2,0,6,2,1,2,2,2,2,0,no
0,1,0,0,0,0,1,1,0,0,0,0,0,no
0,1,0,0,0,0,1,1,0,0,0,0,0,no
15,2,1,1,1,4,1,1,15,0,15,15,0,no
3,1,0,0,0,0,1,1,3,0,3,3,0,no
3,0,0,0,0,0,1,1,3,0,3,3,0,no
25,2,6,3,2,4,1,1,25,0,25,25,0,no
3,3,0,0,0,0,1,1,3,0,3,3,0,no
45,4,10,3,2,7,1,1,45,0,45,45,0,no
5,5,2,0,0,2,1,1,5,0,5,5,0,no
41,1,8,2,3,8,1,1,41,0,41,41,0,no
3,3,0,0,0,0,1,1,3,0,3,3,0,no
3,0,0,0,0,0,1,1,3,0,3,3,0,no
12,0,3,3,0,1,1,1,12,0,12,12,0,no
24,1,4,3,0,5,1,1,24,0,24,24,0,no
9,3,2,1,0,2,1,1,9,0,9,9,0,no
3,0,0,0,0,0,1,1,3,0,3,3,0,no
6,1,0,0,0,1,1,1,6,0,6,6,0,no
10,2,0,0,0,2,1,1,10,0,10,10,0,no
7,2,0,0,0,1,1,1,7,0,7,7,0,no
3,1,0,0,0,0,1,1,3,0,3,3,0,no
9,3,2,1,0,2,1,1,9,0,9,9,0,no
3,0,0,0,0,0,1,1,3,0,3,3,0,no
6,1,0,0,0,1,1,1,6,0,6,6,0,no
13,2,0,0,0,3,1,1,13,0,13,13,0,no
7,2,0,0,0,1,1,1,7,0,7,7,0,no
0,3,0,0,0,0,1,1,0,0,0,0,0,no
0,0,0,0,0,0,1,1,0,0,0,0,0,no
0,1,0,0,0,0,1,1,0,0,0,0,0,no
0,2,0,0,0,0,1,1,0,0,0,0,0,no
0,2,0,0,0,0,1,1,0,0,0,0,0,no
8,0,0,0,0,0,1,1,8,0,8,8,0,no
3,0,0,0,0,0,1,1,3,0,3,3,0,no
13,2,4,4,1,1,1,1,13,0,13,13,0,no
3,0,0,0,0,0,1,1,0,3,3,3,0,no
5,1,0,0,1,0,0,0,0,0,0,0,0,no
14,0,2,1,0,1,2,2,2,2,2,2,0,no
23,1,4,2,2,3,1,1,10,0,10,10,0,no
19,1,2,2,0,1,2,1,19,0,18,9.5,0,no
17,1,2,1,1,1,4,3,3,2,2,1.25,0,no
3,0,0,0,0,0,0,0,0,0,0,0,0,no
38,2,6,4,2,8,0,0,0,0,0,0,0,yes
5,1,1,1,0,0,1,1,5,0,5,5,0,no
9,0,2,2,0,0,1,1,9,0,9,9,0,no
13,1,2,1,3,1,0,0,0,0,0,0,0,no
3,0,0,0,0,0,0,0,0,0,0,0,0,no
7,2,1,1,0,1,0,0,0,0,0,0,0,no
9,1,2,1,0,1,0,0,0,0,0,0,0,no
6,0,1,1,0,0,0,0,0,0,0,0,0,no
6,1,1,1,0,0,0,0,0,0,0,0,0,no
5,0,1,1,1,1,0,0,0,0,0,0,0,no
3,1,0,0,0,0,0,0,0,0,0,0,0,no
3,2,0,0,0,0,0,0,0,0,0,0,0,no
7,0,1,1,1,0,1,1,1,1,2,2,0,no
0,0,0,0,0,0,0,0,0,0,0,0,0,no
3,1,0,0,0,0,1,1,3,0,3,3,0,no
9,1,1,1,0,1,1,1,9,0,9,9,0,no
3,2,0,0,0,0,0,0,0,0,0,0,0,no
3,1,0,0,0,0,0,0,0,0,0,0,0,no
14,1,2,1,2,3,0,0,0,0,0,0,0,no
0,1,0,0,1,0,1,1,0,0,0,0,0,no
0,1,0,0,1,0,1,1,0,0,0,0,0,no
21,7,2,1,0,0,1,1,21,0,21,21,1,no
16,4,2,1,0,0,1,1,16,0,16,16,1,no
7,4,1,1,0,0,1,1,7,0,7,7,1,no
3,1,0,0,0,0,1,1,3,0,3,3,0,no
3,2,0,0,0,0,1,1,3,0,3,3,0,no
3,0,0,0,0,0,1,1,3,0,3,3,0,no
3,0,0,0,0,0,1,1,3,0,3,3,0,no
3,0,0,0,0,0,1,1,3,0,3,3,0,no
0,0,0,0,1,0,1,1,0,0,0,0,0,no
0,0,0,0,1,0,1,1,0,0,0,0,0,no
0,0,0,0,1,0,1,1,0,0,0,0,0,no
0,5,0,0,1,0,1,1,0,0,0,0,0,no
0,4,0,0,1,0,1,1,0,0,0,0,0,no
0,2,0,0,1,0,1,1,0,0,0,0,0,no
0,4,0,0,1,0,1,1,0,0,0,0,0,no
0,5,0,0,1,0,1,1,0,0,0,0,0,no
0,5,0,0,1,0,1,1,0,0,0,0,0,no
0,4,0,0,1,0,1,1,0,0,0,0,0,no
0,2,0,0,1,0,1,1,0,0,0,0,0,no
0,3,0,0,1,0,1,1,0,0,0,0,0,no
0,1,0,0,1,0,1,1,0,0,0,0,0,no
0,2,0,0,1,0,1,1,0,0,0,0,0,no
0,3,0,0,1,0,1,1,0,0,0,0,0,no
0,2,0,0,1,0,1,1,0,0,0,0,0,no
0,3,0,0,1,0,1,1,0,0,0,0,0,no
0,3,0,0,1,0,1,1,0,0,0,0,0,no
0,2,0,0,1,0,1,1,0,0,0,0,0,no
8,11,0,0,0,0,1,1,8,0,8,8,0,no
37,0,6,3,1,11,2,2,37,0,36,18.5,0,yes
9,1,1,1,1,4,1,1,9,0,9,9,0,no
20,1,2,1,0,5,3,3,21,1,19,7.333333,0,no
3,5,0,0,0,0,1,1,3,0,3,3,0,no
5,8,0,0,0,0,1,1,5,0,5,5,0,no
34,0,5,2,2,6,3,3,35,1,33,12,0,no
10,1,3,2,1,1,1,1,10,0,10,10,0,no
15,5,3,2,1,4,2,2,15,0,14,7.5,0,yes
3,1,0,0,0,0,1,1,3,0,3,3,0,no
15,5,3,1,2,2,1,1,15,0,15,15,0,no
3,2,0,0,0,0,1,1,3,0,3,3,0,yes
5,1,0,0,0,0,1,1,5,0,5,5,0,no
5,1,0,0,0,0,1,1,5,0,5,5,0,yes
3,2,0,0,0,0,1,1,3,0,3,3,0,no
3,2,0,0,0,0,1,1,3,0,3,3,0,no
25,2,5,4,1,2,2,2,25,0,23,12.5,0,no
11,1,4,1,2,1,1,1,11,0,11,11,0,yes
5,0,1,1,0,0,1,1,5,0,5,5,0,no
3,1,0,0,0,0,1,1,3,0,3,3,0,no
12,0,3,3,0,2,1,1,12,0,12,12,0,no
9,3,1,1,0,1,1,1,9,0,9,9,0,no
11,1,2,2,0,3,1,1,11,0,11,11,0,no
10,1,1,1,0,1,1,1,10,0,10,10,0,no
3,0,0,0,0,0,1,1,3,0,3,3,0,no
4,1,0,0,0,1,1,1,4,0,4,4,0,no
14,6,2,1,0,0,1,1,14,0,14,14,0,no
6,2,0,0,0,0,1,1,6,0,6,6,0,no
3,3,0,0,0,0,1,1,3,0,3,3,0,no
29,0,3,3,3,15,2,2,30,1,29,15.5,0,no
35,1,1,1,0,6,2,2,35,0,20,17.5,0,no
3,0,0,0,0,0,1,1,3,0,3,3,0,no
3,0,0,0,0,0,1,1,3,0,3,3,0,no
3,0,0,0,0,0,1,1,3,0,3,3,0,no
5,0,1,1,1,0,1,1,5,0,5,5,0,no
6,0,1,1,2,0,1,1,6,0,6,6,0,no
3,0,0,0,0,0,1,1,3,0,3,3,0,no
3,0,0,0,0,0,1,1,3,0,3,3,0,no
3,0,0,0,0,0,1,1,3,0,3,3,0,no
3,0,0,0,0,0,1,1,3,0,3,3,0,no
3,0,0,0,0,0,1,1,3,0,3,3,0,no
3,0,0,0,0,0,1,1,3,0,3,3,0,no
3,0,0,0,0,0,1,1,3,0,3,3,0,no
3,0,0,0,0,0,1,1,3,0,3,3,0,no
3,0,0,0,0,0,1,1,3,0,3,3,0,no
3,0,0,0,0,0,1,1,3,0,3,3,0,no
5,0,1,1,0,0,1,1,5,0,5,5,0,no
5,3,0,0,0,0,1,1,5,0,5,5,0,no
10,0,3,1,3,1,1,1,10,0,10,10,0,no
9,7,0,0,0,0,1,1,9,0,9,9,0,no
8,0,3,1,3,0,1,1,8,0,8,8,0,no
38,0,13,2,10,4,2,2,39,1,38,20,0,no
5,2,0,0,0,0,1,1,5,0,5,5,0,no
8,1,2,1,2,1,1,1,8,0,8,8,0,no
3,0,0,0,0,0,1,1,3,0,3,3,0,no
3,0,0,0,0,0,1,1,3,0,3,3,0,no
3,0,0,0,0,0,1,1,3,0,3,3,0,no
8,0,2,1,2,1,1,1,8,0,8,8,0,no
3,1,0,0,0,0,1,1,3,0,3,3,0,no
3,2,0,0,0,0,1,1,3,0,3,3,0,no
3,1,0,0,0,0,1,1,3,0,3,3,0,no
3,2,0,0,0,0,1,1,3,0,3,3,0,no
3,1,0,0,0,0,1,1,3,0,3,3,0,no
3,2,0,0,0,0,1,1,3,0,3,3,0,no
3,1,0,0,0,0,1,1,3,0,3,3,0,no
3,2,0,0,0,0,1,1,3,0,3,3,0,no
3,1,0,0,0,0,1,1,3,0,3,3,0,no
6,2,0,0,1,2,1,1,6,0,6,6,0,no
6,2,0,0,0,3,2,2,7,1,6,4,0,no
4,2,0,0,0,0,1,1,4,0,4,4,0,no
4,0,0,0,0,1,2,2,5,1,4,3,0,no
3,1,0,0,0,0,1,1,3,0,3,3,0,no
3,0,0,0,0,0,1,1,3,0,3,3,0,no
3,0,0,0,0,0,1,1,3,0,3,3,0,no
10,2,1,1,2,0,1,1,10,0,10,10,0,no
9,2,1,1,2,0,1,1,9,0,9,9,0,no
3,1,0,0,0,0,1,1,3,0,3,3,0,no
19,3,5,1,2,0,2,2,20,1,19,10.5,0,no
6,2,0,0,0,0,1,1,6,0,6,6,0,no
4,2,0,0,1,0,1,1,4,0,4,4,0,no
11,2,3,1,3,0,2,2,12,1,12,6.5,0,no
5,0,1,1,1,0,1,1,5,0,5,5,0,no
6,0,1,1,1,0,1,1,6,0,6,6,0,no
3,1,0,0,0,0,1,1,3,0,3,3,0,no
12,1,3,2,2,1,2,2,13,1,12,7,0,no
3,0,0,0,0,0,1,1,3,0,3,3,0,no
3,0,0,0,0,0,1,1,3,0,3,3,0,no
17,1,4,2,2,1,3,2,18,1,16,6.333333,1,no
34,3,7,1,2,1,4,3,36,2,32,9.5,1,no
21,1,6,2,4,0,1,1,21,0,21,21,0,no
16,1,4,2,1,1,3,2,16,0,13,5.333333,1,no
3,1,0,0,0,0,1,1,3,0,3,3,0,no
23,3,6,1,2,0,2,2,24,1,23,12.5,0,no
3,1,0,0,0,0,1,1,3,0,3,3,0,no
12,0,1,1,0,1,1,1,12,0,12,12,0,no
9,3,0,0,0,0,1,1,9,0,9,9,0,no
34,1,8,3,4,1,3,3,35,1,31,12,0,no
4,1,0,0,0,0,1,1,4,0,4,4,0,no
12,2,1,1,0,0,1,1,12,0,12,12,0,no
12,1,4,3,2,1,1,1,12,0,12,12,0,no
13,0,1,1,0,0,2,2,21,8,21,14.5,0,no
3,1,0,0,0,0,1,1,3,0,3,3,0,no
3,2,0,0,0,0,1,1,3,0,3,3,0,no
10,2,1,1,1,2,1,1,10,0,10,10,0,no
3,0,0,0,0,0,1,1,3,0,3,3,0,no
3,0,0,0,0,0,1,1,3,0,3,3,0,no
3,0,0,0,0,0,1,1,3,0,3,3,0,no
3,1,0,0,0,0,1,1,3,0,3,3,0,no
3,1,0,0,0,0,1,1,3,0,3,3,0,no
3,0,0,0,0,0,1,1,3,0,3,3,0,no
3,1,0,0,0,0,1,1,3,0,3,3,0,no
3,0,0,0,0,0,1,1,3,0,3,3,0,no
3,0,0,0,0,0,1,1,3,0,3,3,0,no
3,0,0,0,0,0,1,1,3,0,3,3,0,no
3,1,0,0,0,0,1,1,3,0,3,3,0,no
16,2,3,1,1,2,1,1,16,0,16,16,0,no
7,4,1,1,1,0,1,1,7,0,7,7,0,no
18,0,5,2,1,8,1,1,18,0,18,18,0,yes
4,1,0,0,0,0,1,1,4,0,4,4,0,no
20,4,4,2,1,3,2,1,20,0,15,10,0,no
10,0,1,1,0,1,1,1,10,0,10,10,0,no
22,2,2,1,1,4,2,2,23,1,22,12,0,yes
3,1,0,0,0,0,1,1,3,0,3,3,0,no
29,2,7,4,4,3,1,1,29,0,29,29,0,no
13,1,3,2,2,1,3,3,15,2,13,5.666667,0,no
4,1,0,0,0,0,1,1,4,0,4,4,0,no
25,4,3,2,3,3,2,2,26,1,25,13.5,0,no
20,6,4,2,0,3,2,1,20,0,15,10,0,no
4,5,0,0,0,1,2,2,4,0,3,2,0,no
3,5,0,0,0,0,1,1,3,0,3,3,0,no
7,6,1,1,0,0,1,1,7,0,7,7,0,no
3,4,0,0,0,0,1,1,3,0,3,3,0,no
16,5,1,1,0,0,1,1,16,0,16,16,0,no
10,0,1,1,0,1,1,1,10,0,10,10,0,no
15,2,3,2,2,2,1,1,15,0,15,15,0,no
10,3,2,1,1,2,1,1,10,0,10,10,0,no
23,3,2,1,2,4,2,2,24,1,23,12.5,0,no
35,2,5,3,1,5,3,3,36,1,30,12.333333,0,yes
3,1,0,0,0,0,1,1,3,0,3,3,0,no
3,1,0,0,1,0,1,1,3,0,3,3,0,no
3,2,0,0,0,0,1,1,3,0,3,3,0,no
6,2,1,1,5,0,1,1,6,0,6,6,0,no
3,1,0,0,0,0,1,1,3,0,3,3,0,no
3,2,0,0,0,0,1,1,3,0,3,3,0,no
12,2,2,1,0,1,2,2,12,0,9,6,0,no
3,3,0,0,0,0,3,3,21,18,20,13,0,no
33,4,7,3,3,4,1,1,33,0,33,33,0,no
21,2,3,1,3,3,3,3,22,1,20,7.666667,0,no
38,4,10,6,7,4,2,1,38,0,33,19,0,no
4,3,0,0,0,1,2,2,4,0,3,2,0,no
3,3,0,0,0,0,1,1,3,0,3,3,0,no
11,4,2,1,1,0,1,1,11,0,11,11,0,no
3,2,0,0,0,0,1,1,3,0,3,3,0,no
12,3,2,1,1,0,1,1,12,0,12,12,0,no
3,2,0,0,0,0,1,1,3,0,3,3,0,no
3,2,0,0,0,0,1,1,3,0,3,3,0,no
5,1,1,1,1,0,1,1,8,0,8,8,0,no
5,1,1,1,1,0,1,1,8,0,8,8,0,no
5,1,1,1,1,0,1,1,8,0,8,8,0,no
8,1,1,1,1,0,1,1,8,0,8,8,0,no
9,1,0,0,0,0,1,1,9,0,9,9,0,no
8,2,2,2,0,0,1,1,8,0,8,8,0,no
32,2,8,3,6,3,3,3,34,2,32,12,0,no
4,2,0,0,1,0,2,2,5,1,4,3,0,no
3,0,0,0,0,0,1,1,3,0,3,3,0,no
3,0,0,0,0,0,1,1,3,0,3,3,0,no
3,0,0,0,0,0,1,1,3,0,3,3,0,no
3,0,0,0,0,0,1,1,3,0,3,3,0,no
42,3,12,3,5,5,2,2,43,1,42,22,0,no
34,2,10,1,4,2,2,2,35,1,34,18,0,no
6,2,0,0,0,0,1,1,6,0,6,6,0,no
27,1,7,3,4,2,3,3,28,1,24,9.666667,0,no
8,1,1,1,1,0,1,1,8,0,8,8,0,no
3,0,0,0,0,0,1,1,3,0,3,3,0,no
3,0,0,0,0,0,1,1,3,0,3,3,0,no
5,0,0,0,0,1,1,1,5,0,5,5,0,no
14,0,0,0,0,0,1,1,14,0,14,14,0,no
0,0,0,0,0,0,1,1,0,0,0,0,0,no
2,2,0,0,0,0,1,1,2,0,2,2,0,no
2,2,0,0,0,0,1,1,2,0,2,2,0,no
3,0,0,0,0,0,1,1,3,0,3,3,0,no
3,0,0,0,0,0,1,1,3,0,3,3,0,no
3,1,0,0,0,0,1,1,3,0,3,3,0,no
3,0,0,0,0,0,1,1,3,0,3,3,0,no
4,1,0,0,0,1,1,1,4,0,4,4,0,no
0,2,0,0,1,0,1,1,0,0,0,0,0,no
0,2,0,0,1,0,1,1,0,0,0,0,0,no
12,2,0,0,0,0,1,1,12,0,12,12,0,no
3,3,0,0,0,0,1,1,3,0,3,3,0,no
16,4,2,1,2,0,1,1,16,0,16,16,0,no
3,3,0,0,0,0,2,2,4,1,3,2.5,0,no
33,7,5,3,2,2,1,1,33,0,33,33,0,no
3,4,0,0,0,0,1,1,3,0,3,3,0,no
3,0,0,0,0,0,1,1,3,0,3,3,0,no
2,2,0,0,1,0,1,1,2,0,2,2,0,no
2,2,0,0,1,0,1,1,2,0,2,2,0,no
5,2,1,1,1,0,1,1,5,0,5,5,0,no
5,2,1,1,1,0,1,1,5,0,5,5,0,no
3,2,0,0,0,0,1,1,3,0,3,3,0,no
3,2,0,0,0,0,1,1,3,0,3,3,0,no
6,2,1,1,1,0,1,1,6,0,6,6,0,no
5,2,1,1,1,0,1,1,5,0,5,5,0,no
9,0,2,2,0,0,1,1,9,0,9,9,0,no
7,1,1,1,0,0,1,1,7,0,7,7,0,no
7,2,1,1,0,0,1,1,7,0,7,7,0,no
7,1,1,1,0,0,1,1,7,0,7,7,0,no
4,2,0,0,0,0,1,1,4,0,4,4,0,no
3,0,0,0,0,0,1,1,3,0,3,3,0,no
3,1,0,0,0,0,1,1,3,0,3,3,0,no
3,2,0,0,0,0,1,1,3,0,3,3,0,no
3,0,0,0,0,0,1,1,3,0,3,3,0,no
3,1,0,0,0,0,1,1,3,0,3,3,0,no
3,1,0,0,0,0,1,1,3,0,3,3,0,no
11,2,2,1,0,1,1,1,11,0,11,11,0,no
3,1,0,0,0,0,1,1,3,0,3,3,0,no
18,1,5,2,2,2,1,1,18,0,18,18,0,no
7,0,1,1,0,1,1,1,7,0,7,7,0,no
14,1,2,1,4,1,1,1,14,0,14,14,0,no
3,2,0,0,0,0,1,1,3,0,3,3,0,no
10,3,1,1,2,0,1,1,10,0,10,10,0,no
6,1,1,1,4,1,1,1,6,0,6,6,0,no
3,0,0,0,0,0,1,1,3,0,3,3,0,no
3,0,0,0,0,0,1,1,3,0,3,3,0,no
3,0,0,0,0,0,1,1,3,0,3,3,0,no
3,0,0,0,0,0,1,1,3,0,3,3,0,no
3,0,0,0,0,0,1,1,3,0,3,3,0,no
3,0,0,0,0,0,1,1,3,0,3,3,0,no
3,0,0,0,0,0,1,1,3,0,3,3,0,no
3,1,0,0,0,0,1,1,3,0,3,3,0,no
5,0,0,0,0,1,1,1,5,0,5,5,0,no
2,0,0,0,1,0,1,1,2,0,2,2,0,no
3,1,0,0,0,0,1,1,3,0,3,3,0,no
3,0,0,0,0,0,1,1,3,0,3,3,0,no
3,0,0,0,0,0,1,1,3,0,3,3,0,no
3,1,0,0,0,0,1,1,3,0,3,3,0,no
4,2,0,0,0,0,1,1,4,0,4,4,0,no
3,0,0,0,0,0,1,1,3,0,3,3,0,no
3,2,0,0,0,0,1,1,3,0,3,3,0,no
3,0,0,0,0,0,1,1,3,0,3,3,0,no
8,2,3,2,4,3,1,1,8,0,8,8,0,no
3,1,0,0,0,0,1,1,3,0,3,3,0,no
11,1,2,2,1,3,2,2,12,1,11,6.5,0,no
4,2,0,0,0,0,1,1,4,0,4,4,0,no
4,2,0,0,0,0,1,1,4,0,4,4,0,no
25,2,8,8,0,0,1,1,25,0,25,25,0,yes
3,0,0,0,0,0,1,1,3,0,3,3,0,no
3,1,0,0,0,0,1,1,3,0,3,3,0,no
3,1,0,0,0,0,1,1,3,0,3,3,0,no
4,1,0,0,0,0,1,1,4,0,4,4,0,no
3,0,0,0,0,0,1,1,3,0,3,3,0,no
6,0,1,1,1,2,1,1,6,0,6,6,0,no
3,1,0,0,0,0,1,1,3,0,3,3,0,no
3,1,0,0,0,0,1,1,3,0,3,3,0,no
3,1,0,0,0,0,1,1,3,0,3,3,0,no
3,1,0,0,0,0,1,1,3,0,3,3,0,no
3,1,0,0,0,0,1,1,3,0,3,3,0,no
3,1,0,0,0,0,1,1,3,0,3,3,0,no
3,1,0,0,0,0,1,1,3,0,3,3,0,no
3,1,0,0,0,0,1,1,3,0,3,3,0,no
3,1,0,0,0,0,1,1,3,0,3,3,0,no
2,0,0,0,0,0,1,1,2,0,2,2,1,no
3,0,0,0,0,0,1,1,3,0,3,3,1,no
2,0,0,0,1,0,1,1,2,0,2,2,1,no
2,1,0,0,1,0,1,1,2,0,2,2,1,no
34,1,0,0,45,0,2,1,34,0,32,17,1,yes
3,0,0,0,0,0,1,1,3,0,3,3,1,no
2,1,0,0,1,0,1,1,2,0,2,2,1,no
3,0,0,0,0,0,1,1,3,0,3,3,1,no
3,0,0,0,0,0,1,1,3,0,3,3,1,no
3,0,0,0,2,0,1,1,3,0,3,3,1,no
3,0,0,0,1,0,1,1,3,0,3,3,1,no
15,0,3,1,1,1,1,1,15,0,15,15,1,no
3,0,0,0,0,0,1,1,3,0,3,3,1,no
3,0,0,0,0,0,1,1,3,0,3,3,1,no
3,0,0,0,0,0,1,1,3,0,3,3,1,no
3,0,0,0,1,0,1,1,3,0,3,3,1,no
3,0,0,0,1,0,1,1,3,0,3,3,1,no
9,0,3,1,5,0,1,1,9,0,9,9,1,no
3,0,0,0,0,0,1,1,3,0,3,3,1,no
3,1,0,0,1,0,1,1,3,0,3,3,1,no
3,0,0,0,0,0,1,1,3,0,3,3,1,no
8,1,1,1,1,1,1,1,8,0,8,8,1,no
8,2,1,1,1,1,1,1,8,0,8,8,1,no
3,1,0,0,1,0,1,1,3,0,3,3,1,no
3,2,0,0,1,0,1,1,3,0,3,3,1,no
3,1,0,0,1,0,1,1,3,0,3,3,1,no
3,2,0,0,1,0,1,1,3,0,3,3,1,no
3,1,0,0,1,0,1,1,3,0,3,3,1,no
3,2,0,0,1,0,1,1,3,0,3,3,1,no
3,1,0,0,1,0,1,1,3,0,3,3,1,no
3,2,0,0,1,0,1,1,3,0,3,3,1,no
3,0,0,0,0,0,1,1,3,0,3,3,1,no
10,1,2,1,0,0,1,1,10,0,10,10,1,no
2,0,0,0,0,0,1,1,2,0,2,2,1,no
6,0,1,1,1,0,1,1,6,0,6,6,1,no
6,0,1,1,1,0,1,1,6,0,6,6,1,no
8,0,1,1,2,1,1,1,8,0,8,8,1,no
7,0,1,1,1,0,1,1,7,0,7,7,1,no
5,0,0,0,1,0,1,1,5,0,5,5,1,no
5,0,0,0,0,0,1,1,5,0,5,5,1,no
3,0,0,0,1,0,1,1,3,0,3,3,1,no
5,0,0,0,1,1,1,1,5,0,5,5,1,no
3,0,0,0,2,0,1,1,3,0,3,3,1,no
3,0,0,0,1,0,1,1,3,0,3,3,1,no
3,0,0,0,1,0,1,1,3,0,3,3,1,no
3,0,0,0,0,0,1,1,3,0,3,3,1,no
3,0,0,0,0,0,1,1,3,0,3,3,1,no
3,0,0,0,0,0,1,1,3,0,3,3,1,no
3,0,0,0,1,0,1,1,3,0,3,3,1,no
3,0,0,0,0,0,1,1,3,0,3,3,1,no
34,2,7,3,3,3,1,1,34,0,34,34,1,no
8,1,1,1,2,0,1,1,8,0,8,8,1,no
12,1,3,1,3,0,1,1,12,0,12,12,1,no
9,1,1,1,3,0,1,1,9,0,9,9,1,no
8,1,1,1,1,0,1,1,8,0,8,8,1,no
5,1,0,0,1,0,1,1,5,0,5,5,1,no
8,1,1,1,0,0,1,1,8,0,8,8,1,no
3,0,0,0,0,0,1,1,3,0,3,3,1,no
2,1,0,0,1,0,1,1,2,0,2,2,1,no
3,0,0,0,0,0,1,1,3,0,3,3,1,no
3,0,0,0,0,0,1,1,3,0,3,3,1,no
3,0,0,0,2,0,1,1,3,0,3,3,1,no
3,0,0,0,1,0,1,1,3,0,3,3,1,no
3,0,0,0,0,0,1,1,3,0,3,3,1,no
15,0,3,1,1,1,1,1,15,0,15,15,1,yes
3,0,0,0,0,0,1,1,3,0,3,3,1,no
3,0,0,0,0,0,1,1,3,0,3,3,1,no
3,0,0,0,1,0,1,1,3,0,3,3,1,yes
3,0,0,0,1,0,1,1,3,0,3,3,1,no
9,0,3,2,3,0,1,1,9,0,9,9,1,no
3,0,0,0,0,0,1,1,3,0,3,3,1,no
3,1,0,0,1,0,1,1,3,0,3,3,1,no
3,0,0,0,0,0,1,1,3,0,3,3,1,no
8,1,1,1,1,1,1,1,8,0,8,8,1,no
8,2,1,1,1,1,1,1,8,0,8,8,1,no
3,1,0,0,1,0,1,1,3,0,3,3,1,no
3,2,0,0,1,0,1,1,3,0,3,3,1,no
3,1,0,0,1,0,1,1,3,0,3,3,1,no
3,2,0,0,1,0,1,1,3,0,3,3,1,no
3,1,0,0,1,0,1,1,3,0,3,3,1,no
3,2,0,0,1,0,1,1,3,0,3,3,1,no
3,1,0,0,1,0,1,1,3,0,3,3,1,no
3,2,0,0,1,0,1,1,3,0,3,3,1,no
3,0,0,0,0,0,1,1,3,0,3,3,1,no
10,1,2,1,0,0,1,1,10,0,10,10,1,yes
2,0,0,0,0,0,1,1,2,0,2,2,1,no
6,0,1,1,1,0,1,1,6,0,6,6,1,no
6,0,1,1,1,0,1,1,6,0,6,6,1,no
8,0,1,1,2,1,1,1,8,0,8,8,1,yes
7,0,1,1,1,0,1,1,7,0,7,7,1,yes
5,0,0,0,1,0,1,1,5,0,5,5,1,no
5,0,0,0,0,0,1,1,5,0,5,5,1,no
3,0,0,0,1,0,1,1,3,0,3,3,1,no
5,0,0,0,1,1,1,1,5,0,5,5,1,no
3,0,0,0,2,0,1,1,3,0,3,3,1,no
3,0,0,0,1,0,1,1,3,0,3,3,1,no
3,0,0,0,1,0,1,1,3,0,3,3,1,no
3,0,0,0,0,0,1,1,3,0,3,3,1,no
3,0,0,0,0,0,1,1,3,0,3,3,1,no
3,0,0,0,0,0,1,1,3,0,3,3,1,no
3,0,0,0,1,0,1,1,3,0,3,3,1,no
3,0,0,0,0,0,1,1,3,0,3,3,1,no
9,1,1,1,3,0,1,1,9,0,9,9,1,no
34,2,7,3,3,3,1,1,34,0,34,34,1,yes
8,1,1,1,2,0,1,1,8,0,8,8,1,no
12,1,3,1,3,0,1,1,12,0,12,12,1,yes
8,1,1,1,1,0,1,1,8,0,8,8,1,no
5,1,0,0,1,0,1,1,5,0,5,5,1,no
5,1,0,0,0,0,1,1,5,0,5,5,1,no
3,0,0,0,0,0,1,1,3,0,3,3,1,no
2,1,0,0,1,0,1,1,2,0,2,2,1,no
3,0,0,0,0,0,1,1,3,0,3,3,1,no
3,0,0,0,0,0,1,1,3,0,3,3,1,no
3,0,0,0,2,0,1,1,3,0,3,3,1,no
3,1,0,0,1,0,1,1,3,0,3,3,1,no
3,0,0,0,0,0,1,1,3,0,3,3,1,no
3,0,0,0,1,0,1,1,3,0,3,3,1,no
12,0,2,1,2,2,1,1,12,0,12,12,1,no
2,0,0,0,1,0,1,1,2,0,2,2,1,no
3,0,0,0,1,0,1,1,3,0,3,3,1,no
7,0,2,2,3,1,1,1,7,0,7,7,1,no
3,0,0,0,0,0,1,1,3,0,3,3,1,no
3,1,0,0,1,0,1,1,3,0,3,3,1,no
3,0,0,0,0,0,1,1,3,0,3,3,1,no
8,1,1,1,1,1,1,1,8,0,8,8,1,no
8,2,1,1,1,1,1,1,8,0,8,8,1,no
3,1,0,0,1,0,1,1,3,0,3,3,1,no
3,2,0,0,1,0,1,1,3,0,3,3,1,no
3,1,0,0,1,0,1,1,3,0,3,3,1,no
3,2,0,0,1,0,1,1,3,0,3,3,1,no
3,1,0,0,1,0,1,1,3,0,3,3,1,no
3,2,0,0,1,0,1,1,3,0,3,3,1,no
3,1,0,0,1,0,1,1,3,0,3,3,1,no
3,2,0,0,1,0,1,1,3,0,3,3,1,no
3,0,0,0,0,0,1,1,3,0,3,3,1,no
7,1,1,1,1,1,1,1,7,0,7,7,1,no
2,0,0,0,0,0,1,1,2,0,2,2,1,no
7,1,1,1,3,0,1,1,7,0,7,7,1,no
10,1,2,1,2,0,1,1,10,0,10,10,1,no
7,1,1,1,2,0,1,1,7,0,7,7,1,no
6,0,1,1,1,0,1,1,6,0,6,6,1,no
6,0,1,1,1,0,1,1,6,0,6,6,1,no
11,0,2,1,3,1,1,1,11,0,11,11,1,no
7,0,1,1,1,0,1,1,7,0,7,7,1,no
4,0,0,0,0,0,1,1,4,0,4,4,1,no
3,0,0,0,1,0,1,1,3,0,3,3,1,no
5,0,0,0,1,1,1,1,5,0,5,5,1,no
3,0,0,0,2,0,1,1,3,0,3,3,1,no
3,0,0,0,1,0,1,1,3,0,3,3,1,no
3,1,0,0,1,0,1,1,3,0,3,3,1,no
3,0,0,0,0,0,1,1,3,0,3,3,1,no
3,0,0,0,1,0,1,1,3,0,3,3,1,no
3,0,0,0,1,0,1,1,3,0,3,3,1,no
3,0,0,0,0,0,1,1,3,0,3,3,1,no
26,2,5,3,3,3,1,1,26,0,26,26,1,no
8,1,1,1,2,0,1,1,8,0,8,8,1,no
12,1,3,2,4,0,1,1,12,0,12,12,1,no
7,2,1,1,1,0,1,1,7,0,7,7,1,no
4,2,0,0,1,0,1,1,4,0,4,4,1,no
3,0,0,0,0,0,1,1,3,0,3,3,1,no
2,1,0,0,1,0,1,1,2,0,2,2,1,no
3,0,0,0,0,0,1,1,3,0,3,3,1,no
3,0,0,0,0,0,1,1,3,0,3,3,1,no
3,0,0,0,0,0,1,1,3,0,3,3,1,no
3,0,0,0,2,0,1,1,3,0,3,3,1,no
3,0,0,0,1,0,1,1,3,0,3,3,1,no
18,0,4,1,1,1,1,1,18,0,18,18,1,no
3,0,0,0,0,0,1,1,3,0,3,3,1,no
3,0,0,0,0,0,1,1,3,0,3,3,1,no
3,0,0,0,0,0,1,1,3,0,3,3,1,no
3,0,0,0,0,0,1,1,3,0,3,3,1,no
3,0,0,0,1,0,1,1,3,0,3,3,1,no
3,0,0,0,1,0,1,1,3,0,3,3,1,no
9,0,3,2,3,0,1,1,9,0,9,9,1,no
3,0,0,0,0,0,1,1,3,0,3,3,1,no
3,1,0,0,1,0,1,1,3,0,3,3,1,no
3,0,0,0,0,0,1,1,3,0,3,3,1,no
8,1,1,1,1,1,1,1,8,0,8,8,1,no
8,2,1,1,1,1,1,1,8,0,8,8,1,no
3,1,0,0,1,0,1,1,3,0,3,3,1,no
3,2,0,0,1,0,1,1,3,0,3,3,1,no
3,1,0,0,1,0,1,1,3,0,3,3,1,no
3,2,0,0,1,0,1,1,3,0,3,3,1,no
3,1,0,0,1,0,1,1,3,0,3,3,1,no
3,2,0,0,1,0,1,1,3,0,3,3,1,no
3,1,0,0,1,0,1,1,3,0,3,3,1,no
3,2,0,0,1,0,1,1,3,0,3,3,1,no
3,0,0,0,0,0,1,1,3,0,3,3,1,no
13,1,3,1,0,0,1,1,13,0,13,13,1,no
2,0,0,0,0,0,1,1,2,0,2,2,1,no
6,0,1,1,1,0,1,1,6,0,6,6,1,no
6,0,1,1,1,0,1,1,6,0,6,6,1,no
8,0,1,1,2,1,1,1,8,0,8,8,1,no
7,0,1,1,1,0,1,1,7,0,7,7,1,no
5,0,0,0,0,0,1,1,5,0,5,5,1,no
5,0,0,0,1,0,1,1,5,0,5,5,1,no
5,0,0,0,0,0,1,1,5,0,5,5,1,no
3,0,0,0,1,0,1,1,3,0,3,3,1,no
5,0,0,0,1,1,1,1,5,0,5,5,1,no
3,0,0,0,0,0,1,1,3,0,3,3,1,no
3,0,0,0,2,0,1,1,3,0,3,3,1,no
3,0,0,0,1,0,1,1,3,0,3,3,1,no
3,0,0,0,1,0,1,1,3,0,3,3,1,no
3,0,0,0,0,0,1,1,3,0,3,3,1,no
3,0,0,0,0,0,1,1,3,0,3,3,1,no
3,0,0,0,0,0,1,1,3,0,3,3,1,no
3,0,0,0,0,0,1,1,3,0,3,3,1,no
3,0,0,0,1,0,1,1,3,0,3,3,1,no
3,0,0,0,0,0,1,1,3,0,3,3,1,no
39,2,8,3,3,3,1,1,39,0,39,39,1,no
8,1,1,1,2,0,1,1,8,0,8,8,1,no
15,1,4,1,3,0,1,1,15,0,15,15,1,no
9,1,1,1,3,0,1,1,9,0,9,9,1,no
8,1,1,1,0,0,1,1,8,0,8,8,1,no
8,1,1,1,1,0,1,1,8,0,8,8,1,no
5,1,0,0,1,0,1,1,5,0,5,5,1,no
8,1,1,1,0,0,1,1,8,0,8,8,1,no
3,0,0,0,0,0,1,1,3,0,3,3,1,no
2,1,0,0,1,0,1,1,2,0,2,2,1,no
3,0,0,0,0,0,1,1,3,0,3,3,1,no
3,0,0,0,0,0,1,1,3,0,3,3,1,no
3,0,0,0,2,0,1,1,3,0,3,3,1,no
3,0,0,0,0,0,1,1,3,0,3,3,1,no
3,1,0,0,1,0,1,1,3,0,3,3,1,no
3,0,0,0,0,0,1,1,3,0,3,3,1,no
3,0,0,0,1,0,1,1,3,0,3,3,1,no
15,0,3,1,2,2,1,1,15,0,15,15,1,no
3,0,0,0,0,0,1,1,3,0,3,3,1,no
2,0,0,0,1,0,1,1,2,0,2,2,1,no
3,0,0,0,1,0,1,1,3,0,3,3,1,no
7,0,2,2,3,1,1,1,7,0,7,7,1,no
3,0,0,0,0,0,1,1,3,0,3,3,1,no
3,1,0,0,1,0,1,1,3,0,3,3,1,no
3,0,0,0,0,0,1,1,3,0,3,3,1,no
8,1,1,1,1,1,1,1,8,0,8,8,1,no
8,2,1,1,1,1,1,1,8,0,8,8,1,no
3,1,0,0,1,0,1,1,3,0,3,3,1,no
3,2,0,0,1,0,1,1,3,0,3,3,1,no
3,1,0,0,1,0,1,1,3,0,3,3,1,no
3,2,0,0,1,0,1,1,3,0,3,3,1,no
3,1,0,0,1,0,1,1,3,0,3,3,1,no
3,2,0,0,1,0,1,1,3,0,3,3,1,no
3,1,0,0,1,0,1,1,3,0,3,3,1,no
3,2,0,0,1,0,1,1,3,0,3,3,1,no
3,0,0,0,0,0,1,1,3,0,3,3,1,no
10,1,2,1,1,1,1,1,10,0,10,10,1,no
2,0,0,0,0,0,1,1,2,0,2,2,1,no
7,1,1,1,3,0,1,1,7,0,7,7,1,no
10,1,2,1,2,0,1,1,10,0,10,10,1,no
7,1,1,1,2,0,1,1,7,0,7,7,1,no
6,0,1,1,1,0,1,1,6,0,6,6,1,no
6,0,1,1,1,0,1,1,6,0,6,6,1,no
11,0,2,1,3,1,1,1,11,0,11,11,1,no
7,0,1,1,1,0,1,1,7,0,7,7,1,no
5,0,0,0,0,0,1,1,5,0,5,5,1,no
4,0,0,0,0,0,1,1,4,0,4,4,1,no
3,0,0,0,1,0,1,1,3,0,3,3,1,no
5,0,0,0,1,1,1,1,5,0,5,5,1,no
3,0,0,0,2,0,1,1,3,0,3,3,1,no
3,0,0,0,1,0,1,1,3,0,3,3,1,no
3,0,0,0,0,0,1,1,3,0,3,3,1,no
3,1,0,0,1,0,1,1,3,0,3,3,1,no
3,0,0,0,0,0,1,1,3,0,3,3,1,no
3,0,0,0,1,0,1,1,3,0,3,3,1,no
3,0,0,0,0,0,1,1,3,0,3,3,1,no
3,0,0,0,1,0,1,1,3,0,3,3,1,no
3,0,0,0,0,0,1,1,3,0,3,3,1,no
31,2,6,3,3,3,1,1,31,0,31,31,1,no
8,1,1,1,2,0,1,1,8,0,8,8,1,no
15,1,4,2,4,0,1,1,15,0,15,15,1,no
5,1,0,0,0,0,1,1,5,0,5,5,1,no
7,2,1,1,1,0,1,1,7,0,7,7,1,no
4,2,0,0,1,0,1,1,4,0,4,4,1,no
4,2,0,0,1,0,1,1,4,0,4,4,1,no
3,0,0,0,1,0,1,1,3,0,3,3,1,no
3,0,0,0,0,0,1,1,3,0,3,3,1,no
3,0,0,0,0,0,1,1,3,0,3,3,1,no
3,0,0,0,0,0,1,1,3,0,3,3,1,no
3,0,0,0,0,0,1,1,3,0,3,3,1,no
6,1,1,1,1,0,1,1,6,0,6,6,1,no
18,1,7,1,0,0,1,1,18,0,18,18,1,no
3,1,0,0,0,0,1,1,3,0,3,3,1,no
4,2,0,0,1,0,1,1,4,0,4,4,1,no
3,0,0,0,1,0,1,1,3,0,3,3,1,no
3,0,0,0,0,0,1,1,3,0,3,3,1,no
3,0,0,0,0,0,1,1,3,0,3,3,1,no
3,0,0,0,0,0,1,1,3,0,3,3,1,no
3,0,0,0,0,0,1,1,3,0,3,3,1,no
6,1,1,1,1,0,1,1,6,0,6,6,1,no
8,1,2,1,0,0,1,1,8,0,8,8,1,no
3,1,0,0,0,0,1,1,3,0,3,3,1,no
3,0,0,0,0,0,1,1,3,0,3,3,1,no
2,1,0,0,1,0,1,1,2,0,2,2,1,no
3,0,0,0,1,0,1,1,3,0,3,3,1,no
3,0,0,0,0,0,1,1,3,0,3,3,1,no
3,0,0,0,0,0,1,1,3,0,3,3,1,no
3,0,0,0,2,0,1,1,3,0,3,3,1,no
3,0,0,0,1,0,1,1,3,0,3,3,1,no
3,0,0,0,1,0,1,1,3,0,3,3,1,no
50,0,13,1,1,3,1,1,50,0,50,50,1,no
3,0,0,0,0,0,1,1,3,0,3,3,1,no
3,0,0,0,1,0,1,1,3,0,3,3,1,no
3,0,0,0,1,0,1,1,3,0,3,3,1,no
3,0,0,0,1,0,1,1,3,0,3,3,1,no
3,0,0,0,0,0,1,1,3,0,3,3,1,no
3,1,0,0,0,0,1,1,3,0,3,3,1,no
3,0,0,0,0,0,1,1,3,0,3,3,1,no
3,0,0,0,0,0,1,1,3,0,3,3,1,no
3,0,0,0,0,0,1,1,3,0,3,3,1,no
3,0,0,0,1,0,1,1,3,0,3,3,1,no
3,0,0,0,1,0,1,1,3,0,3,3,1,no
3,0,0,0,0,0,1,1,3,0,3,3,1,no
3,0,0,0,0,0,1,1,3,0,3,3,1,no
3,0,0,0,0,0,1,1,3,0,3,3,1,no
3,0,0,0,0,0,1,1,3,0,3,3,1,no
3,0,0,0,0,0,1,1,3,0,3,3,1,no
3,0,0,0,0,0,1,1,3,0,3,3,1,no
3,0,0,0,0,0,1,1,3,0,3,3,1,no
3,0,0,0,0,0,1,1,3,0,3,3,1,no
3,0,0,0,0,0,1,1,3,0,3,3,1,no
3,0,0,0,0,0,1,1,3,0,3,3,1,no
3,0,0,0,0,0,1,1,3,0,3,3,1,no
10,0,0,0,8,0,1,1,10,0,10,10,1,no
3,0,0,0,1,0,1,1,3,0,3,3,1,no
35,0,16,2,11,0,1,1,35,0,35,35,1,no
3,0,0,0,0,0,1,1,3,0,3,3,1,no
3,1,0,0,1,0,1,1,3,0,3,3,1,no
3,0,0,0,0,0,1,1,3,0,3,3,1,no
8,1,1,1,1,1,1,1,8,0,8,8,1,no
8,2,1,1,1,1,1,1,8,0,8,8,1,no
3,1,0,0,1,0,1,1,3,0,3,3,1,no
3,2,0,0,1,0,1,1,3,0,3,3,1,no
3,1,0,0,1,0,1,1,3,0,3,3,1,no
3,2,0,0,1,0,1,1,3,0,3,3,1,no
3,1,0,0,1,0,1,1,3,0,3,3,1,no
3,2,0,0,1,0,1,1,3,0,3,3,1,no
3,1,0,0,1,0,1,1,3,0,3,3,1,no
3,2,0,0,1,0,1,1,3,0,3,3,1,no
3,0,0,0,0,0,1,1,3,0,3,3,1,no
40,1,12,1,0,1,1,1,40,0,40,40,1,no
2,0,0,0,0,0,1,1,2,0,2,2,1,no
7,1,1,1,1,0,1,1,7,0,7,7,1,no
10,1,2,1,0,0,1,1,10,0,10,10,1,no
6,0,1,1,1,0,1,1,6,0,6,6,1,no
6,0,1,1,1,0,1,1,6,0,6,6,1,no
11,0,2,1,3,1,1,1,11,0,11,11,1,no
7,0,1,1,1,0,1,1,7,0,7,7,1,no
5,0,0,0,1,0,1,1,5,0,5,5,1,no
5,0,0,0,1,0,1,1,5,0,5,5,1,no
5,0,0,0,1,0,1,1,5,0,5,5,1,no
5,0,0,0,0,0,1,1,5,0,5,5,1,no
5,0,0,0,1,0,1,1,5,0,5,5,1,no
5,0,0,0,1,0,1,1,5,0,5,5,1,no
5,0,0,0,1,0,1,1,5,0,5,5,1,no
5,0,0,0,0,0,1,1,5,0,5,5,1,no
4,0,0,0,0,0,1,1,4,0,4,4,1,no
5,0,0,0,0,0,1,1,5,0,5,5,1,no
5,0,0,0,1,0,1,1,5,0,5,5,1,no
5,0,0,0,1,0,1,1,5,0,5,5,1,no
3,0,0,0,1,0,1,1,3,0,3,3,1,no
5,0,0,0,1,1,1,1,5,0,5,5,1,no
3,0,0,0,1,0,1,1,3,0,3,3,1,no
3,0,0,0,2,0,1,1,3,0,3,3,1,no
3,0,0,0,1,0,1,1,3,0,3,3,1,no
3,0,0,0,1,0,1,1,3,0,3,3,1,no
3,0,0,0,1,0,1,1,3,0,3,3,1,no
3,0,0,0,0,0,1,1,3,0,3,3,1,no
3,0,0,0,1,0,1,1,3,0,3,3,1,no
3,0,0,0,1,0,1,1,3,0,3,3,1,no
3,0,0,0,1,0,1,1,3,0,3,3,1,no
3,0,0,0,0,0,1,1,3,0,3,3,1,no
3,1,0,0,0,0,1,1,3,0,3,3,1,no
3,0,0,0,0,0,1,1,3,0,3,3,1,no
3,0,0,0,0,0,1,1,3,0,3,3,1,no
3,0,0,0,0,0,1,1,3,0,3,3,1,no
3,0,0,0,1,0,1,1,3,0,3,3,1,no
3,0,0,0,1,0,1,1,3,0,3,3,1,no
3,0,0,0,0,0,1,1,3,0,3,3,1,no
3,0,0,0,0,0,1,1,3,0,3,3,1,no
3,0,0,0,0,0,1,1,3,0,3,3,1,no
3,0,0,0,0,0,1,1,3,0,3,3,1,no
3,0,0,0,0,0,1,1,3,0,3,3,1,no
3,0,0,0,0,0,1,1,3,0,3,3,1,no
3,0,0,0,0,0,1,1,3,0,3,3,1,no
3,0,0,0,0,0,1,1,3,0,3,3,1,no
3,0,0,0,0,0,1,1,3,0,3,3,1,no
3,0,0,0,0,0,1,1,3,0,3,3,1,no
3,0,0,0,0,0,1,1,3,0,3,3,1,no
3,0,0,0,1,0,1,1,3,0,3,3,1,no
3,0,0,0,0,0,1,1,3,0,3,3,1,no
9,1,1,1,3,0,1,1,9,0,9,9,1,no
121,2,24,3,17,12,1,1,121,0,121,121,1,no
8,1,1,1,2,0,1,1,8,0,8,8,1,no
45,1,14,2,3,0,1,1,45,0,45,45,1,no
9,1,1,1,3,0,1,1,9,0,9,9,1,no
9,1,1,1,3,0,1,1,9,0,9,9,1,no
9,1,1,1,3,0,1,1,9,0,9,9,1,no
9,1,1,1,3,0,1,1,9,0,9,9,1,no
9,1,1,1,3,0,1,1,9,0,9,9,1,no
8,1,1,1,1,0,1,1,8,0,8,8,1,no
5,1,0,0,1,0,1,1,5,0,5,5,1,no
8,1,1,1,1,0,1,1,8,0,8,8,1,no
8,1,1,1,1,0,1,1,8,0,8,8,1,no
5,1,0,0,1,0,1,1,5,0,5,5,1,no
5,1,0,0,0,0,1,1,5,0,5,5,1,no
8,1,1,1,1,0,1,1,8,0,8,8,1,no
5,1,0,0,1,0,1,1,5,0,5,5,1,no
8,1,1,1,1,0,1,1,8,0,8,8,1,no
5,1,0,0,1,0,1,1,5,0,5,5,1,no
8,1,1,1,1,0,1,1,8,0,8,8,1,no
5,1,0,0,1,0,1,1,5,0,5,5,1,no
8,1,1,1,0,0,1,1,8,0,8,8,1,no
7,2,1,1,0,0,1,1,7,0,7,7,1,no
5,1,0,0,0,0,1,1,5,0,5,5,1,no
8,1,1,1,1,0,1,1,8,0,8,8,1,no
8,1,1,1,1,0,1,1,8,0,8,8,1,no
5,1,0,0,1,0,1,1,5,0,5,5,1,no
3,0,0,0,0,0,1,1,3,0,3,3,1,no
2,1,0,0,1,0,1,1,2,0,2,2,1,no
3,0,0,0,0,0,1,1,3,0,3,3,1,no
3,0,0,0,0,0,1,1,3,0,3,3,1,no
3,0,0,0,2,0,1,1,3,0,3,3,1,no
3,0,0,0,1,0,1,1,3,0,3,3,1,no
3,0,0,0,1,0,1,1,3,0,3,3,1,no
30,0,8,1,1,1,1,1,30,0,30,30,1,no
3,0,0,0,1,0,1,1,3,0,3,3,1,no
3,0,0,0,1,0,1,1,3,0,3,3,1,no
3,0,0,0,0,0,1,1,3,0,3,3,1,no
3,0,0,0,0,0,1,1,3,0,3,3,1,no
3,0,0,0,0,0,1,1,3,0,3,3,1,no
3,0,0,0,0,0,1,1,3,0,3,3,1,no
3,0,0,0,0,0,1,1,3,0,3,3,1,no
3,0,0,0,0,0,1,1,3,0,3,3,1,no
3,0,0,0,0,0,1,1,3,0,3,3,1,no
3,0,0,0,0,0,1,1,3,0,3,3,1,no
3,0,0,0,0,0,1,1,3,0,3,3,1,no
3,0,0,0,0,0,1,1,3,0,3,3,1,no
5,0,0,0,3,0,1,1,5,0,5,5,1,no
3,0,0,0,1,0,1,1,3,0,3,3,1,no
13,0,5,2,5,0,1,1,13,0,13,13,1,no
3,0,0,0,0,0,1,1,3,0,3,3,1,no
3,1,0,0,1,0,1,1,3,0,3,3,1,no
3,0,0,0,0,0,1,1,3,0,3,3,1,no
8,1,1,1,1,1,1,1,8,0,8,8,1,no
8,2,1,1,1,1,1,1,8,0,8,8,1,no
3,1,0,0,1,0,1,1,3,0,3,3,1,no
3,2,0,0,1,0,1,1,3,0,3,3,1,no
3,1,0,0,1,0,1,1,3,0,3,3,1,no
3,2,0,0,1,0,1,1,3,0,3,3,1,no
3,1,0,0,1,0,1,1,3,0,3,3,1,no
3,2,0,0,1,0,1,1,3,0,3,3,1,no
3,1,0,0,1,0,1,1,3,0,3,3,1,no
3,2,0,0,1,0,1,1,3,0,3,3,1,no
3,0,0,0,0,0,1,1,3,0,3,3,1,no
25,1,7,1,0,0,1,1,25,0,25,25,1,no
2,0,0,0,0,0,1,1,2,0,2,2,1,no
6,0,1,1,1,0,1,1,6,0,6,6,1,no
6,0,1,1,1,0,1,1,6,0,6,6,1,no
8,0,1,1,2,1,1,1,8,0,8,8,1,no
7,0,1,1,1,0,1,1,7,0,7,7,1,no
5,0,0,0,1,0,1,1,5,0,5,5,1,no
5,0,0,0,1,0,1,1,5,0,5,5,1,no
5,0,0,0,1,0,1,1,5,0,5,5,1,no
5,0,0,0,0,0,1,1,5,0,5,5,1,no
5,0,0,0,0,0,1,1,5,0,5,5,1,no
5,0,0,0,0,0,1,1,5,0,5,5,1,no
5,0,0,0,0,0,1,1,5,0,5,5,1,no
3,0,0,0,1,0,1,1,3,0,3,3,1,no
5,0,0,0,1,1,1,1,5,0,5,5,1,no
3,0,0,0,2,0,1,1,3,0,3,3,1,no
3,0,0,0,1,0,1,1,3,0,3,3,1,no
3,0,0,0,1,0,1,1,3,0,3,3,1,no
3,0,0,0,1,0,1,1,3,0,3,3,1,no
3,0,0,0,1,0,1,1,3,0,3,3,1,no
3,0,0,0,1,0,1,1,3,0,3,3,1,no
3,0,0,0,0,0,1,1,3,0,3,3,1,no
3,0,0,0,0,0,1,1,3,0,3,3,1,no
3,0,0,0,0,0,1,1,3,0,3,3,1,no
3,0,0,0,0,0,1,1,3,0,3,3,1,no
3,0,0,0,0,0,1,1,3,0,3,3,1,no
3,0,0,0,0,0,1,1,3,0,3,3,1,no
3,0,0,0,0,0,1,1,3,0,3,3,1,no
3,0,0,0,0,0,1,1,3,0,3,3,1,no
3,0,0,0,0,0,1,1,3,0,3,3,1,no
3,0,0,0,0,0,1,1,3,0,3,3,1,no
3,0,0,0,1,0,1,1,3,0,3,3,1,no
3,0,0,0,0,0,1,1,3,0,3,3,1,no
71,2,14,3,7,7,1,1,71,0,71,71,1,no
8,1,1,1,2,0,1,1,8,0,8,8,1,no
27,1,8,1,3,0,1,1,27,0,27,27,1,no
9,1,1,1,3,0,1,1,9,0,9,9,1,no
8,1,1,1,1,0,1,1,8,0,8,8,1,no
5,1,0,0,1,0,1,1,5,0,5,5,1,no
8,1,1,1,1,0,1,1,8,0,8,8,1,no
8,1,1,1,1,0,1,1,8,0,8,8,1,no
8,1,1,1,1,0,1,1,8,0,8,8,1,no
8,1,1,1,0,0,1,1,8,0,8,8,1,no
8,1,1,1,0,0,1,1,8,0,8,8,1,no
5,1,0,0,0,0,1,1,5,0,5,5,1,no
3,0,0,0,0,0,1,1,3,0,3,3,1,no
2,1,0,0,1,0,1,1,2,0,2,2,1,no
3,0,0,0,0,0,1,1,3,0,3,3,1,no
3,0,0,0,0,0,1,1,3,0,3,3,1,no
3,0,0,0,2,0,1,1,3,0,3,3,1,no
3,0,0,0,1,0,1,1,3,0,3,3,1,no
12,0,2,1,1,1,1,1,12,0,12,12,1,no
3,0,0,0,0,0,1,1,3,0,3,3,1,no
3,0,0,0,1,0,1,1,3,0,3,3,1,no
3,0,0,0,1,0,1,1,3,0,3,3,1,no
7,0,2,1,4,0,1,1,7,0,7,7,1,no
3,0,0,0,0,0,1,1,3,0,3,3,1,no
3,1,0,0,1,0,1,1,3,0,3,3,1,no
3,0,0,0,0,0,1,1,3,0,3,3,1,no
8,1,1,1,1,1,1,1,8,0,8,8,1,no
8,2,1,1,1,1,1,1,8,0,8,8,1,no
3,1,0,0,1,0,1,1,3,0,3,3,1,no
3,2,0,0,1,0,1,1,3,0,3,3,1,no
3,1,0,0,1,0,1,1,3,0,3,3,1,no
3,2,0,0,1,0,1,1,3,0,3,3,1,no
3,1,0,0,1,0,1,1,3,0,3,3,1,no
3,2,0,0,1,0,1,1,3,0,3,3,1,no
3,1,0,0,1,0,1,1,3,0,3,3,1,no
3,2,0,0,1,0,1,1,3,0,3,3,1,no
3,0,0,0,0,0,1,1,3,0,3,3,1,no
7,1,1,1,0,0,1,1,7,0,7,7,1,no
2,0,0,0,0,0,1,1,2,0,2,2,1,no
6,0,1,1,1,0,1,1,6,0,6,6,1,no
6,0,1,1,1,0,1,1,6,0,6,6,1,no
8,0,1,1,2,1,1,1,8,0,8,8,1,no
7,0,1,1,1,0,1,1,7,0,7,7,1,no
5,0,0,0,1,0,1,1,5,0,5,5,1,no
3,0,0,0,1,0,1,1,3,0,3,3,1,no
5,0,0,0,1,1,1,1,5,0,5,5,1,no
3,0,0,0,2,0,1,1,3,0,3,3,1,no
3,0,0,0,1,0,1,1,3,0,3,3,1,no
3,0,0,0,1,0,1,1,3,0,3,3,1,no
3,0,0,0,0,0,1,1,3,0,3,3,1,no
3,0,0,0,1,0,1,1,3,0,3,3,1,no
3,0,0,0,0,0,1,1,3,0,3,3,1,no
29,2,6,3,3,3,1,1,29,0,29,29,1,no
8,1,1,1,2,0,1,1,8,0,8,8,1,no
9,1,2,1,3,0,1,1,9,0,9,9,1,no
9,1,1,1,3,0,1,1,9,0,9,9,1,no
8,1,1,1,1,0,1,1,8,0,8,8,1,no
5,1,0,0,1,0,1,1,5,0,5,5,1,no
3,0,0,0,0,0,1,1,3,0,3,3,1,no
2,1,0,0,1,0,1,1,2,0,2,2,1,no
3,0,0,0,0,0,1,1,3,0,3,3,1,no
3,0,0,0,0,0,1,1,3,0,3,3,1,no
3,0,0,0,2,0,1,1,3,0,3,3,1,no
3,0,0,0,0,0,1,1,3,0,3,3,1,no
3,0,0,0,0,0,1,1,3,0,3,3,1,no
15,0,3,1,1,1,1,1,15,0,15,15,1,no
3,0,0,0,0,0,1,1,3,0,3,3,1,no
3,0,0,0,0,0,1,1,3,0,3,3,1,no
2,0,0,0,1,0,1,1,2,0,2,2,1,no
3,0,0,0,1,0,1,1,3,0,3,3,1,no
7,0,2,1,4,0,1,1,7,0,7,7,1,no
3,0,0,0,0,0,1,1,3,0,3,3,1,no
3,1,0,0,1,0,1,1,3,0,3,3,1,no
3,0,0,0,0,0,1,1,3,0,3,3,1,no
8,1,1,1,1,1,1,1,8,0,8,8,1,no
8,2,1,1,1,1,1,1,8,0,8,8,1,no
3,1,0,0,1,0,1,1,3,0,3,3,1,no
3,2,0,0,1,0,1,1,3,0,3,3,1,no
3,1,0,0,1,0,1,1,3,0,3,3,1,no
3,2,0,0,1,0,1,1,3,0,3,3,1,no
3,1,0,0,1,0,1,1,3,0,3,3,1,no
3,2,0,0,1,0,1,1,3,0,3,3,1,no
3,1,0,0,1,0,1,1,3,0,3,3,1,no
3,2,0,0,1,0,1,1,3,0,3,3,1,no
3,0,0,0,0,0,1,1,3,0,3,3,1,no
10,1,2,1,0,0,1,1,10,0,10,10,1,no
2,0,0,0,0,0,1,1,2,0,2,2,1,no
6,0,1,1,1,0,1,1,6,0,6,6,1,no
6,0,1,1,1,0,1,1,6,0,6,6,1,no
8,0,1,1,2,1,1,1,8,0,8,8,1,no
7,0,1,1,1,0,1,1,7,0,7,7,1,no
5,0,0,0,0,0,1,1,5,0,5,5,1,no
5,0,0,0,0,0,1,1,5,0,5,5,1,no
3,0,0,0,1,0,1,1,3,0,3,3,1,no
5,0,0,0,1,1,1,1,5,0,5,5,1,no
3,0,0,0,2,0,1,1,3,0,3,3,1,no
3,0,0,0,1,0,1,1,3,0,3,3,1,no
3,0,0,0,0,0,1,1,3,0,3,3,1,no
3,0,0,0,0,0,1,1,3,0,3,3,1,no
3,0,0,0,0,0,1,1,3,0,3,3,1,no
3,0,0,0,0,0,1,1,3,0,3,3,1,no
3,0,0,0,1,0,1,1,3,0,3,3,1,no
3,0,0,0,0,0,1,1,3,0,3,3,1,no
29,2,6,3,1,2,1,1,29,0,29,29,1,no
8,1,1,1,2,0,1,1,8,0,8,8,1,no
12,1,3,1,3,0,1,1,12,0,12,12,1,no
8,1,1,1,0,0,1,1,8,0,8,8,1,no
5,1,0,0,0,0,1,1,5,0,5,5,1,no
3,0,0,0,0,0,1,1,3,0,3,3,1,no
2,1,0,0,1,0,1,1,2,0,2,2,1,no
3,0,0,0,0,0,1,1,3,0,3,3,1,no
3,0,0,0,0,0,1,1,3,0,3,3,1,no
3,0,0,0,2,0,1,1,3,0,3,3,1,no
12,0,2,1,1,1,1,1,12,0,12,12,1,no
3,0,0,0,0,0,1,1,3,0,3,3,1,no
3,0,0,0,0,0,1,1,3,0,3,3,1,no
2,0,0,0,1,0,1,1,2,0,2,2,1,no
3,0,0,0,1,0,1,1,3,0,3,3,1,no
5,0,1,1,3,0,1,1,5,0,5,5,1,no
3,0,0,0,0,0,1,1,3,0,3,3,1,no
3,1,0,0,1,0,1,1,3,0,3,3,1,no
3,0,0,0,0,0,1,1,3,0,3,3,1,no
8,1,1,1,1,1,1,1,8,0,8,8,1,no
8,2,1,1,1,1,1,1,8,0,8,8,1,no
3,1,0,0,1,0,1,1,3,0,3,3,1,no
3,2,0,0,1,0,1,1,3,0,3,3,1,no
3,1,0,0,1,0,1,1,3,0,3,3,1,no
3,2,0,0,1,0,1,1,3,0,3,3,1,no
3,1,0,0,1,0,1,1,3,0,3,3,1,no
3,2,0,0,1,0,1,1,3,0,3,3,1,no
3,1,0,0,1,0,1,1,3,0,3,3,1,no
3,2,0,0,1,0,1,1,3,0,3,3,1,no
3,0,0,0,0,0,1,1,3,0,3,3,1,no
7,1,1,1,0,0,1,1,7,0,7,7,1,no
2,0,0,0,0,0,1,1,2,0,2,2,1,no
6,0,1,1,1,0,1,1,6,0,6,6,1,no
6,0,1,1,1,0,1,1,6,0,6,6,1,no
8,0,1,1,2,1,1,1,8,0,8,8,1,no
7,0,1,1,1,0,1,1,7,0,7,7,1,no
5,0,0,0,0,0,1,1,5,0,5,5,1,no
3,0,0,0,1,0,1,1,3,0,3,3,1,no
5,0,0,0,1,1,1,1,5,0,5,5,1,no
3,0,0,0,2,0,1,1,3,0,3,3,1,no
3,0,0,0,1,0,1,1,3,0,3,3,1,no
3,0,0,0,0,0,1,1,3,0,3,3,1,no
3,0,0,0,0,0,1,1,3,0,3,3,1,no
3,0,0,0,1,0,1,1,3,0,3,3,1,no
3,0,0,0,0,0,1,1,3,0,3,3,1,no
24,2,5,3,1,2,1,1,24,0,24,24,1,no
8,1,1,1,2,0,1,1,8,0,8,8,1,no
9,1,2,1,3,0,1,1,9,0,9,9,1,no
8,1,1,1,0,0,1,1,8,0,8,8,1,no
4,2,0,0,1,0,1,1,4,0,4,4,1,no
3,0,0,0,1,0,1,1,3,0,3,3,1,no
3,0,0,0,0,0,1,1,3,0,3,3,1,no
3,0,0,0,0,0,1,1,3,0,3,3,1,no
3,0,0,0,0,0,1,1,3,0,3,3,1,no
3,0,0,0,0,0,1,1,3,0,3,3,1,no
6,1,1,1,1,0,1,1,6,0,6,6,1,no
30,1,13,1,0,0,1,1,30,0,30,30,1,yes
3,1,0,0,0,0,1,1,3,0,3,3,1,no
3,0,0,0,0,0,1,1,3,0,3,3,1,no
2,1,0,0,1,0,1,1,2,0,2,2,1,no
3,0,0,0,0,0,1,1,3,0,3,3,1,no
3,0,0,0,0,0,1,1,3,0,3,3,1,no
3,0,0,0,2,0,1,1,3,0,3,3,1,no
12,0,2,1,1,1,1,1,12,0,12,12,1,no
3,0,0,0,0,0,1,1,3,0,3,3,1,no
3,0,0,0,0,0,1,1,3,0,3,3,1,no
2,0,0,0,1,0,1,1,2,0,2,2,1,no
3,0,0,0,1,0,1,1,3,0,3,3,1,no
5,0,1,1,3,0,1,1,5,0,5,5,1,no
3,0,0,0,0,0,1,1,3,0,3,3,1,no
3,1,0,0,1,0,1,1,3,0,3,3,1,no
3,0,0,0,0,0,1,1,3,0,3,3,1,no
8,1,1,1,1,1,1,1,8,0,8,8,1,no
8,2,1,1,1,1,1,1,8,0,8,8,1,no
3,1,0,0,1,0,1,1,3,0,3,3,1,no
3,2,0,0,1,0,1,1,3,0,3,3,1,no
3,1,0,0,1,0,1,1,3,0,3,3,1,no
3,2,0,0,1,0,1,1,3,0,3,3,1,no
3,1,0,0,1,0,1,1,3,0,3,3,1,no
3,2,0,0,1,0,1,1,3,0,3,3,1,no
3,1,0,0,1,0,1,1,3,0,3,3,1,no
3,2,0,0,1,0,1,1,3,0,3,3,1,no
3,0,0,0,0,0,1,1,3,0,3,3,1,no
7,1,1,1,0,0,1,1,7,0,7,7,1,no
2,0,0,0,0,0,1,1,2,0,2,2,1,no
6,0,1,1,1,0,1,1,6,0,6,6,1,no
6,0,1,1,1,0,1,1,6,0,6,6,1,no
8,0,1,1,2,1,1,1,8,0,8,8,1,no
7,0,1,1,1,0,1,1,7,0,7,7,1,no
5,0,0,0,0,0,1,1,5,0,5,5,1,no
3,0,0,0,1,0,1,1,3,0,3,3,1,no
5,0,0,0,1,1,1,1,5,0,5,5,1,no
3,0,0,0,2,0,1,1,3,0,3,3,1,no
3,0,0,0,1,0,1,1,3,0,3,3,1,no
3,0,0,0,0,0,1,1,3,0,3,3,1,no
3,0,0,0,0,0,1,1,3,0,3,3,1,no
3,0,0,0,1,0,1,1,3,0,3,3,1,no
3,0,0,0,0,0,1,1,3,0,3,3,1,no
24,2,5,3,1,2,1,1,24,0,24,24,1,no
8,1,1,1,2,0,1,1,8,0,8,8,1,no
9,1,2,1,3,0,1,1,9,0,9,9,1,no
8,1,1,1,0,0,1,1,8,0,8,8,1,no
3,0,0,0,0,0,1,1,3,0,3,3,1,no
2,1,0,0,1,0,1,1,2,0,2,2,1,no
3,0,0,0,1,0,1,1,3,0,3,3,1,no
3,0,0,0,0,0,1,1,3,0,3,3,1,no
3,0,0,0,0,0,1,1,3,0,3,3,1,no
3,0,0,0,2,0,1,1,3,0,3,3,1,no
3,0,0,0,0,0,1,1,3,0,3,3,0,no
21,0,5,1,1,1,2,1,21,0,18,10.5,1,no
3,0,0,0,0,0,1,1,3,0,3,3,1,no
3,0,0,0,0,0,1,1,3,0,3,3,1,no
3,0,0,0,0,0,1,1,3,0,3,3,1,no
3,0,0,0,0,0,1,1,3,0,3,3,0,no
3,0,0,0,0,0,1,1,3,0,3,3,1,no
3,0,0,0,0,0,1,1,3,0,3,3,1,no
3,0,0,0,1,0,1,1,3,0,3,3,1,no
3,0,0,0,1,0,1,1,3,0,3,3,1,no
5,0,1,1,3,0,1,1,5,0,5,5,1,no
3,0,0,0,0,0,1,1,3,0,3,3,1,no
3,1,0,0,1,0,1,1,3,0,3,3,1,no
3,0,0,0,0,0,1,1,3,0,3,3,1,no
8,1,1,1,1,1,1,1,8,0,8,8,1,no
8,2,1,1,1,1,1,1,8,0,8,8,1,no
3,1,0,0,1,0,1,1,3,0,3,3,1,no
3,2,0,0,1,0,1,1,3,0,3,3,1,no
3,1,0,0,1,0,1,1,3,0,3,3,1,no
3,2,0,0,1,0,1,1,3,0,3,3,1,no
3,1,0,0,1,0,1,1,3,0,3,3,1,no
3,2,0,0,1,0,1,1,3,0,3,3,1,no
3,1,0,0,1,0,1,1,3,0,3,3,1,no
3,2,0,0,1,0,1,1,3,0,3,3,1,no
3,0,0,0,0,0,1,1,3,0,3,3,1,no
16,1,4,1,0,0,2,1,16,0,13,8,1,no
2,0,0,0,0,0,1,1,2,0,2,2,1,no
6,0,1,1,1,0,1,1,6,0,6,6,1,no
6,0,1,1,1,0,1,1,6,0,6,6,1,no
8,0,1,1,2,1,1,1,8,0,8,8,1,no
7,0,1,1,1,0,1,1,7,0,7,7,1,no
5,0,0,0,1,0,1,1,5,0,5,5,1,no
5,0,0,0,0,0,1,1,5,0,5,5,0,no
5,0,0,0,0,0,1,1,5,0,5,5,1,no
5,0,0,0,0,0,1,1,5,0,5,5,1,no
3,0,0,0,1,0,1,1,3,0,3,3,1,no
5,0,0,0,1,1,1,1,5,0,5,5,1,no
3,0,0,0,1,0,1,1,3,0,3,3,1,no
3,0,0,0,2,0,1,1,3,0,3,3,1,no
3,0,0,0,1,0,1,1,3,0,3,3,1,no
3,0,0,0,0,0,1,1,3,0,3,3,0,no
3,0,0,0,0,0,1,1,3,0,3,3,1,no
3,0,0,0,0,0,1,1,3,0,3,3,1,no
3,0,0,0,0,0,1,1,3,0,3,3,1,no
3,0,0,0,0,0,1,1,3,0,3,3,0,no
3,0,0,0,0,0,1,1,3,0,3,3,1,no
3,0,0,0,0,0,1,1,3,0,3,3,1,no
3,0,0,0,1,0,1,1,3,0,3,3,1,no
3,0,0,0,0,0,1,1,3,0,3,3,1,no
45,2,9,3,3,4,2,1,45,0,40,22.5,1,no
8,1,1,1,2,0,1,1,8,0,8,8,1,no
18,1,5,1,3,0,2,1,18,0,15,9,1,no
8,1,1,1,1,0,1,1,8,0,8,8,1,no
5,1,0,0,0,0,1,1,5,0,5,5,0,no
8,1,1,1,0,0,1,1,8,0,8,8,1,no
5,1,0,0,0,0,1,1,5,0,5,5,1,no
4,2,0,0,1,0,1,1,4,0,4,4,1,no
3,0,0,0,1,0,1,1,3,0,3,3,1,no
3,0,0,0,0,0,1,1,3,0,3,3,1,no
3,0,0,0,0,0,1,1,3,0,3,3,1,no
3,0,0,0,0,0,1,1,3,0,3,3,1,no
3,0,0,0,0,0,1,1,3,0,3,3,1,no
6,1,1,1,1,0,1,1,6,0,6,6,1,no
12,1,4,1,0,0,1,1,12,0,12,12,1,no
3,1,0,0,0,0,1,1,3,0,3,3,1,no
3,0,0,0,0,0,1,1,3,0,3,3,0,no
2,1,0,0,1,0,1,1,2,0,2,2,0,no
3,0,0,0,1,0,1,1,3,0,3,3,0,no
3,0,0,0,0,0,1,1,3,0,3,3,0,no
3,0,0,0,0,0,1,1,3,0,3,3,0,no
3,0,0,0,2,0,1,1,3,0,3,3,0,no
3,0,0,0,0,0,1,1,3,0,3,3,0,no
15,0,3,1,1,1,1,1,15,0,15,15,0,no
3,0,0,0,0,0,1,1,3,0,3,3,0,no
3,0,0,0,0,0,1,1,3,0,3,3,0,no
3,0,0,0,1,0,1,1,3,0,3,3,0,no
3,0,0,0,1,0,1,1,3,0,3,3,0,no
3,0,0,0,1,0,1,1,3,0,3,3,0,no
3,0,0,0,0,0,1,1,3,0,3,3,0,no
3,1,0,0,1,0,1,1,3,0,3,3,0,no
3,0,0,0,0,0,1,1,3,0,3,3,0,no
8,1,1,1,1,1,1,1,8,0,8,8,0,no
8,2,1,1,1,1,1,1,8,0,8,8,0,no
3,1,0,0,1,0,1,1,3,0,3,3,0,no
3,2,0,0,1,0,1,1,3,0,3,3,0,no
3,1,0,0,1,0,1,1,3,0,3,3,0,no
3,2,0,0,1,0,1,1,3,0,3,3,0,no
3,1,0,0,1,0,1,1,3,0,3,3,0,no
3,2,0,0,1,0,1,1,3,0,3,3,0,no
3,1,0,0,1,0,1,1,3,0,3,3,0,no
3,2,0,0,1,0,1,1,3,0,3,3,0,no
3,0,0,0,0,0,1,1,3,0,3,3,0,no
10,1,2,1,0,0,1,1,10,0,10,10,0,no
2,0,0,0,0,0,1,1,2,0,2,2,0,no
6,0,1,1,1,0,1,1,6,0,6,6,0,no
6,0,1,1,1,0,1,1,6,0,6,6,0,no
8,0,1,1,2,1,1,1,8,0,8,8,0,no
7,0,1,1,1,0,1,1,7,0,7,7,0,no
5,0,0,0,1,0,1,1,5,0,5,5,0,no
5,0,0,0,0,0,1,1,5,0,5,5,0,no
3,0,0,0,1,0,1,1,3,0,3,3,0,no
5,0,0,0,1,1,1,1,5,0,5,5,0,no
3,0,0,0,1,0,1,1,3,0,3,3,0,no
3,0,0,0,2,0,1,1,3,0,3,3,0,no
3,0,0,0,1,0,1,1,3,0,3,3,0,no
3,0,0,0,0,0,1,1,3,0,3,3,0,no
3,0,0,0,0,0,1,1,3,0,3,3,0,no
3,0,0,0,0,0,1,1,3,0,3,3,0,no
3,0,0,0,1,0,1,1,3,0,3,3,0,no
3,0,0,0,0,0,1,1,3,0,3,3,0,no
35,2,7,3,3,4,1,1,35,0,35,35,0,no
8,1,1,1,2,0,1,1,8,0,8,8,0,no
12,1,3,1,3,0,1,1,12,0,12,12,0,no
8,1,1,1,1,0,1,1,8,0,8,8,0,no
5,1,0,0,0,0,1,1,5,0,5,5,0,no
3,0,0,0,0,0,1,1,3,0,3,3,1,no
2,1,0,0,1,0,1,1,2,0,2,2,1,no
3,0,0,0,0,0,1,1,3,0,3,3,1,no
3,0,0,0,0,0,1,1,3,0,3,3,1,no
3,0,0,0,2,0,1,1,3,0,3,3,1,no
3,0,0,0,0,0,1,1,3,0,3,3,0,no
3,0,0,0,1,0,1,1,3,0,3,3,1,no
15,0,3,1,1,1,2,1,15,0,12,7.5,1,no
3,0,0,0,0,0,1,1,3,0,3,3,0,no
3,0,0,0,0,0,1,1,3,0,3,3,1,no
3,0,0,0,1,0,1,1,3,0,3,3,1,no
3,0,0,0,1,0,1,1,3,0,3,3,1,no
7,0,2,1,4,0,1,1,7,0,7,7,1,no
3,0,0,0,0,0,1,1,3,0,3,3,1,no
3,1,0,0,1,0,1,1,3,0,3,3,1,no
3,0,0,0,0,0,1,1,3,0,3,3,1,no
8,1,1,1,1,1,1,1,8,0,8,8,1,no
8,2,1,1,1,1,1,1,8,0,8,8,1,no
3,1,0,0,1,0,1,1,3,0,3,3,1,no
3,2,0,0,1,0,1,1,3,0,3,3,1,no
3,1,0,0,1,0,1,1,3,0,3,3,1,no
3,2,0,0,1,0,1,1,3,0,3,3,1,no
3,1,0,0,1,0,1,1,3,0,3,3,1,no
3,2,0,0,1,0,1,1,3,0,3,3,1,no
3,1,0,0,1,0,1,1,3,0,3,3,1,no
3,2,0,0,1,0,1,1,3,0,3,3,1,no
3,0,0,0,0,0,1,1,3,0,3,3,1,no
10,1,2,1,0,0,2,1,10,0,7,5,1,no
2,0,0,0,0,0,1,1,2,0,2,2,1,no
6,0,1,1,1,0,1,1,6,0,6,6,1,no
6,0,1,1,1,0,1,1,6,0,6,6,1,no
8,0,1,1,2,1,1,1,8,0,8,8,1,no
7,0,1,1,1,0,1,1,7,0,7,7,1,no
5,0,0,0,0,0,1,1,5,0,5,5,0,no
5,0,0,0,1,0,1,1,5,0,5,5,1,no
3,0,0,0,1,0,1,1,3,0,3,3,1,no
5,0,0,0,1,1,1,1,5,0,5,5,1,no
3,0,0,0,2,0,1,1,3,0,3,3,1,no
3,0,0,0,1,0,1,1,3,0,3,3,1,no
3,0,0,0,0,0,1,1,3,0,3,3,0,no
3,0,0,0,1,0,1,1,3,0,3,3,1,no
3,0,0,0,0,0,1,1,3,0,3,3,0,no
3,0,0,0,0,0,1,1,3,0,3,3,1,no
3,0,0,0,1,0,1,1,3,0,3,3,1,no
3,0,0,0,0,0,1,1,3,0,3,3,1,no
34,2,7,3,3,3,2,1,34,0,29,17,1,no
8,1,1,1,2,0,1,1,8,0,8,8,1,no
12,1,3,1,3,0,2,1,12,0,9,6,1,no
9,1,1,1,3,0,1,1,9,0,9,9,1,no
5,1,0,0,0,0,1,1,5,0,5,5,0,no
8,1,1,1,1,0,1,1,8,0,8,8,1,no
5,1,0,0,1,0,1,1,5,0,5,5,1,no
3,0,0,0,0,0,1,1,3,0,3,3,1,no
2,1,0,0,1,0,1,1,2,0,2,2,1,no
3,0,0,0,0,0,1,1,3,0,3,3,1,no
3,0,0,0,0,0,1,1,3,0,3,3,1,no
3,0,0,0,2,0,1,1,3,0,3,3,1,no
12,0,2,1,1,1,1,1,12,0,12,12,1,no
3,0,0,0,0,0,1,1,3,0,3,3,1,no
3,0,0,0,0,0,1,1,3,0,3,3,1,no
2,0,0,0,1,0,1,1,2,0,2,2,1,no
3,0,0,0,1,0,1,1,3,0,3,3,1,no
5,0,1,1,3,0,1,1,5,0,5,5,1,no
3,0,0,0,0,0,1,1,3,0,3,3,1,no
3,1,0,0,1,0,1,1,3,0,3,3,1,no
3,0,0,0,0,0,1,1,3,0,3,3,1,no
8,1,1,1,1,1,1,1,8,0,8,8,1,no
8,2,1,1,1,1,1,1,8,0,8,8,1,no
3,1,0,0,1,0,1,1,3,0,3,3,1,no
3,2,0,0,1,0,1,1,3,0,3,3,1,no
3,1,0,0,1,0,1,1,3,0,3,3,1,no
3,2,0,0,1,0,1,1,3,0,3,3,1,no
3,1,0,0,1,0,1,1,3,0,3,3,1,no
3,2,0,0,1,0,1,1,3,0,3,3,1,no
3,1,0,0,1,0,1,1,3,0,3,3,1,no
3,2,0,0,1,0,1,1,3,0,3,3,1,no
3,0,0,0,0,0,1,1,3,0,3,3,1,no
7,1,1,1,0,0,1,1,7,0,7,7,1,no
2,0,0,0,0,0,1,1,2,0,2,2,1,no
6,0,1,1,1,0,1,1,6,0,6,6,1,no
6,0,1,1,1,0,1,1,6,0,6,6,1,no
8,0,1,1,2,1,1,1,8,0,8,8,1,no
7,0,1,1,1,0,1,1,7,0,7,7,1,no
5,0,0,0,0,0,1,1,5,0,5,5,1,no
3,0,0,0,1,0,1,1,3,0,3,3,1,no
5,0,0,0,1,1,1,1,5,0,5,5,1,no
3,0,0,0,2,0,1,1,3,0,3,3,1,no
3,0,0,0,1,0,1,1,3,0,3,3,1,no
3,0,0,0,0,0,1,1,3,0,3,3,1,no
3,0,0,0,0,0,1,1,3,0,3,3,1,no
3,0,0,0,1,0,1,1,3,0,3,3,1,no
3,0,0,0,0,0,1,1,3,0,3,3,1,no
24,2,5,3,1,2,1,1,24,0,24,24,1,no
8,1,1,1,2,0,1,1,8,0,8,8,1,no
9,1,2,1,3,0,1,1,9,0,9,9,1,no
8,1,1,1,0,0,1,1,8,0,8,8,1,no
19,2,5,2,0,3,1,1,19,0,19,19,0,no
14,2,4,2,1,3,1,1,14,0,14,14,0,no
7,1,1,1,0,2,1,1,7,0,7,7,0,no
3,2,0,0,0,0,1,1,3,0,3,3,0,no
6,2,0,0,0,1,1,1,6,0,6,6,0,no
13,1,1,1,0,3,1,1,13,0,13,13,0,no
16,3,4,2,1,5,1,1,16,0,16,16,0,no
3,1,0,0,0,0,1,1,3,0,3,3,0,no
3,2,0,0,0,0,1,1,3,0,3,3,0,no
3,1,0,0,0,0,1,1,3,0,3,3,0,no
3,1,0,0,0,0,1,1,3,0,3,3,0,no
5,1,0,0,0,1,1,1,5,0,5,5,0,no
12,2,2,1,0,0,2,2,13,1,12,7,0,no
4,0,0,0,0,0,1,1,4,0,4,4,0,no
22,0,4,3,0,8,2,1,22,0,19,11,0,no
3,0,0,0,0,0,1,1,3,0,3,3,0,no
3,0,0,0,0,0,1,1,3,0,3,3,0,no
3,0,0,0,0,0,2,1,4,1,3,2.5,0,no
3,0,0,0,0,0,1,1,3,0,3,3,0,no
13,2,2,1,1,3,1,1,13,0,13,13,0,no
38,1,7,2,2,8,1,1,38,0,38,38,0,yes
12,1,2,1,1,2,1,1,12,0,12,12,0,no
20,1,3,3,1,9,1,1,20,0,20,20,0,no
3,0,0,0,0,0,1,1,3,0,3,3,0,no
3,0,0,0,0,0,1,1,3,0,3,3,0,no
5,1,0,0,0,2,1,1,5,0,5,5,0,no
3,1,0,0,0,0,1,1,3,0,3,3,0,no
3,1,0,0,0,0,1,1,3,0,3,3,0,no
6,2,0,0,0,3,1,1,6,0,6,6,0,no
3,2,0,0,0,0,1,1,3,0,3,3,0,no
3,2,0,0,0,0,1,1,3,0,3,3,0,no
2,1,0,0,1,0,1,1,2,0,2,2,0,no
3,1,0,0,0,0,1,1,3,0,3,3,0,no
14,1,2,2,0,4,1,1,14,0,14,14,0,no
3,0,0,0,0,0,1,1,3,0,3,3,0,no
26,0,1,1,0,0,1,1,26,0,26,26,0,yes
6,3,0,0,0,0,1,1,6,0,6,6,0,no
3,1,0,0,1,0,1,1,3,0,3,3,0,no
3,0,0,0,0,0,1,1,3,0,3,3,0,no
3,0,0,0,0,0,1,1,3,0,3,3,0,no
3,0,0,0,0,0,1,1,3,0,3,3,0,no
7,0,1,1,0,1,1,1,7,0,7,7,0,no
45,1,7,2,1,5,2,1,45,0,44,22.5,0,no
3,2,0,0,0,0,1,1,3,0,3,3,0,no
22,0,0,0,0,2,1,1,22,0,22,22,0,yes
8,1,1,1,1,0,1,1,8,0,8,8,0,no
3,0,0,0,0,0,1,1,3,0,3,3,0,no
5,0,0,0,0,1,1,1,5,0,5,5,0,no
4,1,0,0,0,1,1,1,4,0,4,4,0,no
5,1,1,1,0,0,1,1,5,0,5,5,0,no
41,1,8,3,0,7,1,1,41,0,41,41,0,yes
103,0,19,5,11,21,2,1,103,0,87,51.5,0,no
9,0,1,1,0,1,1,1,9,0,9,9,0,no
14,1,2,1,0,2,1,1,14,0,14,14,0,no
4,5,0,0,0,0,1,1,4,0,4,4,0,no
23,1,3,1,0,7,1,1,23,0,23,23,0,no
15,1,2,1,0,4,1,1,15,0,15,15,0,no
13,1,1,0,0,4,1,1,13,0,13,13,0,no
23,1,5,2,0,4,1,1,23,0,23,23,0,yes
11,1,2,1,1,1,1,1,11,0,11,11,0,no
10,1,2,1,0,0,1,1,10,0,10,10,0,no
7,1,0,0,0,0,2,1,8,1,7,4.5,0,no
15,1,3,2,0,3,1,1,15,0,15,15,0,no
9,1,2,2,0,1,1,1,9,0,9,9,0,no
0,1,0,0,0,0,1,1,0,0,0,0,0,no
2,0,0,0,1,0,1,1,2,0,2,2,0,no
3,0,0,0,0,0,1,1,3,0,3,3,0,no
3,1,0,0,0,0,1,1,3,0,3,3,0,no
3,0,0,0,0,0,1,1,3,0,3,3,0,no
3,0,0,0,0,0,1,1,3,0,3,3,0,no
3,1,0,0,0,0,1,1,3,0,3,3,0,no
9,1,1,1,0,1,1,1,9,0,9,9,0,no
24,1,4,3,0,3,1,1,24,0,24,24,0,no
6,1,1,1,0,0,1,1,6,0,6,6,0,no
23,1,4,2,0,5,1,1,23,0,23,23,0,no
60,1,7,3,3,12,2,1,66,6,66,36,0,yes
7,5,1,1,0,0,2,1,10,3,10,6.5,0,no
14,1,2,1,0,2,1,1,14,0,14,14,0,no
23,1,4,2,1,1,1,1,23,0,23,23,0,no
29,1,5,3,0,10,1,1,29,0,29,29,0,no
10,1,3,2,1,0,1,1,10,0,10,10,0,no
24,1,5,3,0,1,1,1,24,0,24,24,0,no
7,0,1,1,0,2,1,1,7,0,7,7,0,no
5,0,0,0,0,1,1,1,5,0,5,5,0,no
43,1,8,4,0,4,1,1,43,0,43,43,0,no
16,1,2,1,0,2,1,1,16,0,16,16,0,no
3,1,0,0,0,0,1,1,3,0,3,3,0,no
17,3,3,2,1,3,1,1,17,0,17,17,0,no
8,4,2,2,0,1,1,1,8,0,8,8,0,no
13,3,4,3,1,2,1,1,13,0,13,13,0,no
3,3,0,0,0,0,1,1,3,0,3,3,0,no
6,4,0,0,0,0,1,1,6,0,6,6,0,no
33,0,8,3,1,4,1,1,33,0,33,33,0,yes
3,0,1,0,0,0,1,1,3,0,3,3,0,no
43,1,6,4,1,7,1,1,43,0,43,43,0,no
17,0,4,2,0,4,2,1,18,1,18,9.5,0,no
21,0,4,2,0,5,1,1,21,0,21,21,0,yes
9,0,1,1,2,2,1,1,9,0,9,9,0,no
59,2,13,5,0,8,1,1,59,0,59,59,0,no
18,0,4,2,0,1,1,1,18,0,18,18,0,no
4,2,0,0,0,0,1,1,4,0,4,4,0,no
11,1,1,1,0,1,1,1,11,0,11,11,0,no
11,1,1,1,0,1,1,1,11,0,11,11,0,no
42,1,6,4,1,7,1,1,42,0,42,42,0,no
4,1,0,0,0,0,1,1,4,0,4,4,0,no
0,1,0,0,0,0,1,1,0,0,0,0,0,no
10,0,0,0,0,2,1,1,10,0,10,10,0,no
10,2,1,1,2,1,1,1,10,0,10,10,0,yes
0,0,0,0,0,0,1,1,0,0,0,0,0,no
5,2,0,0,0,0,1,1,5,0,5,5,0,no
15,2,3,1,1,1,1,1,15,0,15,15,0,yes
6,1,0,0,0,1,2,2,7,1,6,4,0,no
26,1,1,1,0,11,2,2,27,1,26,14,0,yes
4,1,0,0,0,1,1,1,4,0,4,4,0,no
5,0,0,0,0,0,1,1,5,0,5,5,0,no
3,5,0,0,0,0,1,1,3,0,3,3,0,no
11,1,1,1,0,5,1,1,11,0,11,11,0,no
18,1,1,1,0,8,1,1,18,0,18,18,0,yes
4,1,0,0,0,1,1,1,4,0,4,4,0,no
3,0,0,0,0,0,2,2,4,1,3,2.5,0,no
3,4,0,0,0,0,1,1,3,0,3,3,0,no
10,1,0,0,0,1,1,1,10,0,10,10,0,no
7,0,0,0,0,1,1,1,7,0,7,7,0,no
3,1,0,0,0,0,1,1,3,0,3,3,0,no
17,2,1,1,0,5,1,1,17,0,17,17,0,no
11,1,2,1,0,1,1,1,11,0,11,11,0,no
3,0,0,0,0,0,1,1,3,0,3,3,0,no
3,0,0,0,0,0,1,1,3,0,3,3,0,no
3,0,0,0,0,0,1,1,3,0,3,3,0,no
3,0,0,0,0,0,1,1,3,0,3,3,0,no
10,0,2,2,1,2,1,1,10,0,10,10,0,no
3,0,0,0,0,0,1,1,3,0,3,3,0,no
3,0,0,0,0,0,1,1,3,0,3,3,0,no
3,0,0,0,0,0,1,1,3,0,3,3,0,no
3,0,0,0,0,0,1,1,3,0,3,3,0,no
3,0,0,0,0,0,1,1,3,0,3,3,0,no
6,0,1,1,0,0,1,1,6,0,6,6,0,no
3,0,0,0,0,0,1,1,3,0,3,3,0,no
3,0,0,0,0,0,1,1,3,0,3,3,0,no
3,0,0,0,0,0,2,2,4,1,3,2.5,0,no
3,0,0,0,0,0,1,1,3,0,3,3,0,no
6,0,1,1,0,0,1,1,6,0,6,6,0,no
3,0,0,0,0,0,1,1,3,0,3,3,0,no
3,0,0,0,0,0,1,1,3,0,3,3,0,no
3,0,0,0,0,0,1,1,3,0,3,3,0,no
3,0,0,0,0,0,1,1,3,0,3,3,0,no
6,0,1,1,0,0,1,1,6,0,6,6,0,no
3,0,0,0,0,0,1,1,3,0,3,3,0,no
3,0,0,0,0,0,1,1,3,0,3,3,0,yes
3,1,0,0,0,0,1,1,3,0,3,3,0,no
3,0,0,0,0,0,1,1,3,0,3,3,0,no
3,1,0,0,0,0,1,1,3,0,3,3,0,no
3,0,0,0,0,0,1,1,3,0,3,3,0,no
3,2,0,0,0,0,1,1,3,0,3,3,0,no
3,1,0,0,0,0,1,1,3,0,3,3,0,no
3,0,0,0,0,0,1,1,3,0,3,3,0,no
3,0,0,0,0,0,1,1,3,0,3,3,0,no
3,0,0,0,0,0,1,1,3,0,3,3,0,no
4,1,0,0,0,0,1,1,4,0,4,4,0,no
5,0,0,0,0,0,1,1,5,0,5,5,0,no
3,0,0,0,0,0,1,1,3,0,3,3,0,no
7,0,1,1,0,0,1,1,7,0,7,7,0,no
8,0,1,1,0,1,1,1,8,0,8,8,0,no
15,0,5,3,2,2,1,1,15,0,15,15,0,no
4,2,0,0,1,0,3,3,6,2,4,2.666667,0,no
3,1,0,0,0,0,1,1,3,0,3,3,0,no
3,1,0,0,0,0,1,1,3,0,3,3,0,no
7,1,2,1,2,1,1,1,7,0,7,7,0,no
14,2,2,1,1,2,1,1,14,0,14,14,0,no
16,3,0,0,0,0,1,1,16,0,16,16,0,no
4,2,0,0,0,0,1,1,4,0,4,4,0,no
4,2,0,0,0,0,1,1,4,0,4,4,0,no
3,1,0,0,0,0,1,1,3,0,3,3,0,no
4,0,0,0,0,0,1,1,4,0,4,4,0,no
0,0,0,0,0,0,1,1,0,0,0,0,0,no
3,1,0,0,0,0,1,1,3,0,3,3,0,no
3,1,0,0,0,0,1,1,3,0,3,3,0,no
3,1,0,0,0,0,1,1,3,0,3,3,0,no
3,0,0,0,0,0,1,1,3,0,3,3,0,no
8,1,1,1,0,1,1,1,8,0,8,8,0,no
3,0,0,0,0,0,1,1,3,0,3,3,0,no
3,0,0,0,0,0,1,1,3,0,3,3,0,no
12,1,2,1,0,1,1,1,12,0,12,12,0,no
5,2,0,0,0,1,1,1,5,0,5,5,0,no
0,0,0,0,1,0,1,1,0,0,0,0,0,no
0,0,0,0,1,0,1,1,0,0,0,0,0,no
0,0,0,0,1,0,1,1,0,0,0,0,0,no
0,0,0,0,1,0,1,1,0,0,0,0,0,no
0,2,0,0,1,0,1,1,0,0,0,0,0,no
0,0,0,0,1,0,1,1,0,0,0,0,0,no
0,6,0,0,1,0,1,1,0,0,0,0,0,no
0,0,0,0,1,0,1,1,0,0,0,0,0,no
0,2,0,0,1,0,1,1,0,0,0,0,0,no
7,2,0,0,0,0,2,2,8,1,7,4.5,0,no
4,2,0,0,0,1,1,1,4,0,4,4,0,no
5,1,1,1,0,0,1,1,5,0,5,5,0,no
7,1,1,1,0,1,1,1,7,0,7,7,0,no
3,3,0,0,0,0,1,1,3,0,3,3,0,no
17,4,4,1,0,2,2,2,17,0,14,8.5,1,no
6,1,1,1,0,0,1,1,6,0,6,6,0,yes
11,0,2,2,0,2,1,1,11,0,11,11,0,yes
15,0,3,2,0,1,1,1,15,0,15,15,0,no
3,0,0,0,0,0,1,1,3,0,3,3,0,no
4,6,0,0,0,1,1,1,4,0,4,4,0,no
3,0,0,0,0,0,1,1,3,0,3,3,0,no
3,1,0,0,0,0,1,1,3,0,3,3,0,no
6,2,1,1,0,1,1,1,6,0,6,6,0,no
7,6,0,0,1,0,2,2,8,1,8,4.5,0,no
10,0,1,1,0,1,1,1,10,0,10,10,0,no
3,0,0,0,0,0,1,1,3,0,3,3,0,no
3,0,0,0,0,0,1,1,3,0,3,3,0,no
3,0,0,0,0,0,1,1,3,0,3,3,0,no
3,0,0,0,0,0,1,1,3,0,3,3,0,no
3,0,0,0,0,0,1,1,3,0,3,3,0,no
14,2,2,1,0,1,1,1,14,0,14,14,0,no
9,0,1,1,1,1,1,1,9,0,9,9,0,no
3,0,0,0,0,0,1,1,3,0,3,3,0,no
6,2,1,1,0,0,1,1,6,0,6,6,0,no
2,2,0,0,0,0,1,1,2,0,2,2,0,no
13,0,2,1,0,1,2,2,13,0,12,6.5,0,no
3,1,0,0,0,0,1,1,3,0,3,3,0,no
4,0,0,0,0,0,1,1,4,0,4,4,0,no
8,0,0,0,0,1,1,1,8,0,8,8,0,no
3,0,0,0,0,0,1,1,3,0,3,3,0,no
0,0,0,0,1,0,1,1,0,0,0,0,0,no
5,3,0,0,0,0,1,1,5,0,5,5,0,no
22,0,2,1,0,3,1,1,22,0,22,22,0,no
3,0,0,0,0,0,1,1,3,0,3,3,0,no
3,0,0,0,0,0,1,1,3,0,3,3,0,no
3,1,0,0,0,0,1,1,3,0,3,3,0,no
8,0,0,0,0,0,1,1,8,0,8,8,0,no
3,0,0,0,0,0,1,1,3,0,3,3,0,no
4,2,0,0,0,0,1,1,4,0,4,4,0,no
18,2,1,1,0,0,2,2,18,0,16,9,0,no
0,2,0,0,0,0,1,1,0,0,0,0,0,no
4,2,0,0,0,0,2,2,4,0,3,2,0,no
8,2,1,1,0,0,2,2,8,0,7,4,0,no
0,1,0,0,1,0,1,1,0,0,0,0,0,no
4,3,0,0,0,0,1,1,4,0,4,4,0,no
9,2,1,1,0,1,2,2,9,0,8,4.5,0,no
3,2,0,0,0,0,2,2,3,0,2,1.5,0,no
3,2,0,0,1,0,2,2,3,0,2,1.5,0,no
0,2,0,0,2,0,1,1,0,0,0,0,0,no
4,1,0,0,0,0,2,1,5,1,4,3,0,no
3,0,0,0,0,0,1,1,3,0,3,3,0,no
3,0,0,0,0,0,1,1,3,0,3,3,0,no
3,0,0,0,0,0,1,1,3,0,3,3,0,no
0,0,0,0,1,0,1,1,0,0,0,0,0,no
5,3,0,0,0,0,2,2,5,0,4,2.5,0,no
22,2,1,1,0,3,2,2,22,0,18,11,0,yes
4,2,0,0,0,0,2,2,4,0,3,2,0,no
4,2,0,0,0,0,2,2,4,0,3,2,0,yes
9,5,0,0,0,0,2,2,9,0,8,4.5,0,no
8,1,1,1,0,1,1,1,8,0,8,8,0,no
50,2,4,1,0,9,2,2,50,0,42,25,0,yes
4,2,0,0,0,0,2,2,4,0,3,2,0,no
21,2,2,1,0,3,2,2,21,0,18,10.5,0,yes
6,4,0,0,0,0,2,2,6,0,5,3,0,no
24,2,1,1,0,4,2,2,24,0,20,12,0,yes
4,2,0,0,0,0,2,2,4,0,3,2,0,no
5,2,0,0,0,0,2,2,5,0,4,2.5,0,yes
0,1,0,0,1,0,1,1,0,0,0,0,0,no
0,0,0,0,1,0,1,1,0,0,0,0,0,no
3,0,0,0,0,0,1,1,3,0,3,3,0,no
3,0,0,0,0,0,1,1,3,0,3,3,0,no
3,1,0,0,0,0,1,1,3,0,3,3,0,no
11,2,0,0,1,0,3,2,44,33,43,25.666667,0,no
5,3,0,0,0,0,2,2,6,1,5,3.5,0,no
13,2,2,0,1,4,1,1,13,0,13,13,0,no
9,4,0,0,0,1,1,1,9,0,9,9,0,no
21,1,3,2,0,3,2,2,21,0,19,10.5,0,no
3,2,0,0,0,0,1,1,3,0,3,3,0,no
7,2,1,1,0,0,1,1,7,0,7,7,0,no
14,0,2,2,0,1,1,1,14,0,14,14,0,no
17,0,3,2,1,1,3,3,18,1,9,6.333333,1,no
22,1,4,2,2,4,2,2,23,1,22,12,0,no
19,1,3,2,0,0,1,1,19,0,19,19,0,yes
21,0,4,2,2,0,4,2,27,6,24,8.25,0,no
36,0,3,2,0,3,1,1,36,0,36,36,0,no
21,0,5,2,1,0,1,1,21,0,21,21,0,no
26,0,2,2,0,1,3,2,26,0,24,8.666667,0,no
3,2,0,0,0,0,1,1,3,0,3,3,0,no
5,1,1,1,0,0,2,2,5,0,3,2.5,1,no
3,0,0,0,0,0,1,1,3,0,3,3,0,no
3,0,0,0,0,0,1,1,3,0,3,3,0,yes
3,0,0,0,0,0,1,1,3,0,3,3,0,no
3,0,0,0,0,0,1,1,3,0,3,3,0,no
3,0,0,0,0,0,1,1,3,0,3,3,0,no
3,0,0,0,0,0,1,1,3,0,3,3,0,no
3,0,0,0,0,0,1,1,3,0,3,3,0,no
3,0,0,0,0,0,1,1,3,0,3,3,0,no
3,0,0,0,0,0,1,1,3,0,3,3,0,no
0,0,0,0,1,0,1,1,0,0,0,0,0,no
0,0,0,0,1,0,1,1,0,0,0,0,0,no
0,0,0,0,1,0,1,1,0,0,0,0,0,no
0,0,0,0,1,0,1,1,0,0,0,0,0,no
0,0,0,0,1,0,1,1,0,0,0,0,0,no
0,0,0,0,1,0,1,1,0,0,0,0,0,no
0,0,0,0,1,0,1,1,0,0,0,0,0,no
5,3,0,0,0,0,1,1,5,0,5,5,0,no
12,0,1,1,0,1,1,1,12,0,12,12,0,no
6,0,1,1,0,1,1,1,6,0,6,6,0,no
3,0,0,0,0,0,1,1,3,0,3,3,0,no
3,0,0,0,0,0,1,1,3,0,3,3,0,no
3,0,0,0,0,0,1,1,3,0,3,3,0,no
3,0,0,0,0,0,1,1,3,0,3,3,0,no
3,1,0,0,0,0,1,1,3,0,3,3,0,no
3,0,0,0,0,0,1,1,3,0,3,3,0,no
3,0,0,0,0,0,1,1,3,0,3,3,0,no
3,0,0,0,0,0,1,1,3,0,3,3,0,no
8,6,1,0,0,0,1,1,8,0,8,8,0,no
3,0,0,0,0,0,1,1,3,0,3,3,0,no
3,0,0,0,0,0,1,1,3,0,3,3,0,no
3,0,0,0,0,0,1,1,3,0,3,3,0,no
3,0,0,0,0,0,1,1,3,0,3,3,0,no
3,0,0,0,0,0,1,1,3,0,3,3,0,no
3,0,0,0,0,0,1,1,3,0,3,3,0,no
2,0,0,0,1,0,1,1,2,0,2,2,0,no
3,0,0,0,0,0,1,1,3,0,3,3,0,no
11,0,3,2,0,3,1,1,11,0,11,11,0,no
21,1,5,3,0,1,1,1,21,0,21,21,0,yes
6,3,0,0,0,0,1,1,6,0,6,6,0,no
16,2,3,3,0,0,1,1,16,0,16,16,0,no
5,2,0,0,0,1,1,1,5,0,5,5,0,no
5,2,1,1,0,0,1,1,5,0,5,5,0,no
12,2,2,2,0,2,1,1,12,0,12,12,0,no
16,2,2,1,0,4,2,2,16,0,15,8,0,no
8,3,1,1,0,2,1,1,8,0,8,8,0,no
10,1,2,2,0,0,1,1,10,0,10,10,0,no
8,5,0,0,0,0,2,2,8,0,7,4,0,no
3,3,0,0,0,0,1,1,3,0,3,3,0,no
3,1,0,0,0,0,1,1,3,0,3,3,0,no
2,1,0,0,0,0,1,1,2,0,2,2,0,no
7,1,1,1,0,1,1,1,7,0,7,7,0,no
3,2,0,0,0,0,2,2,18,15,18,16.5,0,no
2,2,0,0,0,0,1,1,2,0,2,2,0,no
7,1,1,1,0,1,1,1,7,0,7,7,0,no
8,1,1,1,0,1,1,1,8,0,8,8,0,no
3,3,0,0,0,0,2,2,4,1,3,2.5,0,no
3,1,0,0,0,0,1,1,3,0,3,3,0,no
3,1,0,0,0,0,1,1,3,0,3,3,0,no
3,1,0,0,0,0,1,1,3,0,3,3,0,no
3,1,0,0,0,0,1,1,3,0,3,3,0,no
3,2,0,0,0,0,1,1,3,0,3,3,0,no
3,1,0,0,0,0,1,1,3,0,3,3,0,no
3,2,0,0,0,0,1,1,3,0,3,3,0,no
14,5,1,1,0,2,1,1,14,0,14,14,0,no
2,3,0,0,2,0,1,1,2,0,2,2,0,no
8,4,1,1,0,1,1,1,8,0,8,8,0,no
3,3,0,0,0,0,1,1,3,0,3,3,0,no
38,2,4,1,2,5,2,2,38,0,29,19,0,no
32,2,4,2,1,8,2,2,33,1,32,17,0,no
45,3,5,1,4,7,1,1,45,0,45,45,0,no
33,0,4,2,0,4,1,1,33,0,33,33,0,no
32,3,4,1,2,4,2,2,32,0,23,16,0,no
3,2,0,0,0,0,1,1,3,0,3,3,0,no
5,2,0,0,0,0,1,1,5,0,5,5,0,no
40,3,5,1,4,7,1,1,40,0,40,40,0,yes
22,4,3,1,2,5,1,1,22,0,22,22,0,yes
23,5,3,2,0,3,1,1,23,0,23,23,0,no
8,4,1,1,0,1,1,1,8,0,8,8,0,no
4,2,0,0,0,0,1,1,4,0,4,4,0,no
26,0,4,3,2,4,1,1,26,0,26,26,0,yes
3,2,0,0,0,0,1,1,3,0,3,3,0,no
2,2,0,0,0,0,1,1,2,0,2,2,0,no
3,2,0,0,0,0,1,1,3,0,3,3,0,no
5,3,0,0,0,0,1,1,5,0,5,5,0,no
4,1,0,0,0,0,1,1,4,0,4,4,0,no
51,0,6,2,3,6,3,3,52,1,35,17.666667,0,no
27,4,3,2,3,2,3,3,28,1,15,9.666667,0,no
3,2,0,0,1,0,1,1,3,0,3,3,0,no
3,2,0,0,1,0,1,1,3,0,3,3,0,no
3,1,0,0,0,0,2,2,4,1,4,2.5,0,no
5,2,0,0,0,0,1,1,5,0,5,5,0,no
66,3,9,2,4,7,2,2,67,1,66,34,0,yes
8,0,2,1,0,0,2,2,9,1,8,5,0,no
13,1,2,2,0,2,1,1,13,0,13,13,0,yes
11,3,1,1,2,1,1,1,11,0,11,11,0,no
39,4,6,2,2,4,2,2,40,1,39,20.5,0,yes
3,1,0,0,0,0,1,1,3,0,3,3,0,no
14,0,4,2,0,2,1,1,14,0,14,14,0,no
4,2,0,0,0,0,1,1,4,0,4,4,0,no
6,0,1,1,0,1,1,1,6,0,6,6,0,no
4,4,0,0,0,0,1,1,4,0,4,4,0,no
36,0,5,2,0,7,1,1,36,0,36,36,0,yes
3,2,0,0,0,0,1,1,3,0,3,3,0,no
7,2,1,1,0,1,1,1,7,0,7,7,0,no
4,2,0,0,0,0,1,1,4,0,4,4,0,no
17,1,7,2,6,1,1,1,17,0,17,17,0,no
3,0,0,0,0,0,1,1,3,0,3,3,0,no
3,0,0,0,0,0,1,1,3,0,3,3,0,no
7,0,1,0,0,2,1,1,7,0,7,7,0,no
3,0,0,0,0,0,1,1,3,0,3,3,0,no
2,0,0,0,2,0,1,1,2,0,2,2,0,no
7,2,1,1,0,0,1,1,7,0,7,7,0,no
3,0,0,0,0,0,1,1,3,0,3,3,0,no
6,0,1,1,0,0,1,1,6,0,6,6,0,no
3,0,0,0,0,0,1,1,3,0,3,3,0,no
6,1,1,1,0,1,1,1,6,0,6,6,0,no
14,2,3,1,0,1,1,1,14,0,14,14,0,no
0,0,0,0,1,0,1,1,0,0,0,0,0,no
12,0,3,1,2,0,1,1,12,0,12,12,0,no
16,2,2,2,0,3,1,1,16,0,16,16,0,no
2,1,0,0,0,0,1,1,2,0,2,2,0,no
2,1,0,0,0,0,1,1,2,0,2,2,0,no
28,2,5,3,6,4,2,2,28,0,21,14,0,no
18,2,3,3,0,2,2,2,18,0,9,9,0,no
2,2,0,0,0,0,1,1,2,0,2,2,0,no
12,1,2,1,0,2,1,1,12,0,12,12,0,no
18,0,4,3,1,1,1,1,18,0,18,18,0,no
3,1,0,0,0,0,1,1,3,0,3,3,0,no
3,3,0,0,0,0,1,1,3,0,3,3,0,no
7,1,0,0,1,3,2,2,7,0,4,3.5,0,no
3,0,0,0,0,0,1,1,3,0,3,3,0,no
47,1,6,3,4,10,1,1,47,0,47,47,0,no
4,0,0,0,0,0,1,1,4,0,4,4,0,no
4,1,0,0,1,0,1,1,4,0,4,4,0,no
76,7,13,5,4,11,2,2,76,0,68,38,0,no
4,1,0,0,1,0,1,1,4,0,4,4,0,no
2,2,0,0,0,0,1,1,2,0,2,2,0,no
8,0,1,1,0,0,1,1,8,0,8,8,0,no
8,0,1,1,0,0,1,1,8,0,8,8,0,no
4,4,0,0,0,1,1,1,4,0,4,4,0,no
8,3,1,1,0,1,1,1,8,0,8,8,0,no
14,3,3,2,0,1,1,1,14,0,14,14,0,no
6,4,0,0,0,0,1,1,6,0,6,6,0,no
3,0,0,0,0,0,1,1,3,0,3,3,0,no
3,0,0,0,0,0,1,1,3,0,3,3,0,no
3,0,0,0,0,0,1,1,3,0,3,3,0,no
3,0,0,0,0,0,1,1,3,0,3,3,0,no
0,1,0,0,1,0,1,1,0,0,0,0,0,no
0,1,0,0,1,0,1,1,0,0,0,0,0,no
0,2,0,0,1,0,1,1,0,0,0,0,0,no
0,2,0,0,1,0,1,1,0,0,0,0,0,no
0,1,0,0,1,0,1,1,0,0,0,0,0,no
0,3,0,0,1,0,1,1,0,0,0,0,0,no
0,1,0,0,1,0,1,1,0,0,0,0,0,no
0,1,0,0,1,0,1,1,0,0,0,0,0,no
0,2,0,0,1,0,1,1,0,0,0,0,0,no
0,1,0,0,1,0,1,1,0,0,0,0,0,no
8,6,0,0,0,0,1,1,8,0,8,8,0,no
3,0,0,0,0,0,1,1,3,0,3,3,0,no
3,0,0,0,0,0,1,1,3,0,3,3,0,no
3,0,0,0,0,0,1,1,3,0,3,3,0,no
3,0,0,0,0,0,1,1,3,0,3,3,0,no
3,0,0,0,0,0,1,1,3,0,3,3,0,no
3,0,0,0,0,0,1,1,3,0,3,3,0,no
5,2,0,0,0,0,1,1,5,0,5,5,0,no
15,3,2,1,1,1,1,1,15,0,15,15,0,no
3,1,0,0,0,0,1,1,3,0,3,3,0,no
19,0,3,3,1,5,1,1,19,0,19,19,0,no
3,1,0,0,0,0,1,1,3,0,3,3,0,no
3,2,0,0,0,0,1,1,3,0,3,3,0,no
3,2,0,0,0,0,1,1,3,0,3,3,0,no
13,1,1,1,0,4,1,1,13,0,13,13,0,no
25,3,4,2,1,8,1,1,25,0,25,25,0,no
5,1,1,1,0,0,1,1,5,0,5,5,0,no
3,1,0,0,0,0,1,1,3,0,3,3,0,no
3,3,0,0,0,0,1,1,3,0,3,3,0,no
4,1,0,0,0,1,1,1,4,0,4,4,0,no
9,1,1,1,0,0,1,1,9,0,9,9,0,yes
17,4,4,1,0,1,1,1,17,0,17,17,0,no
12,0,2,2,0,1,1,1,12,0,12,12,0,no
3,1,0,0,0,0,1,1,3,0,3,3,0,no
3,2,0,0,0,0,1,1,3,0,3,3,0,no
4,0,0,0,0,0,1,1,4,0,4,4,0,no
3,0,0,0,0,0,1,1,3,0,3,3,0,no
9,0,2,2,0,0,1,1,9,0,9,9,0,no
0,0,0,0,1,0,1,1,0,0,0,0,0,no
4,2,0,0,0,0,1,1,4,0,4,4,0,no
23,0,4,2,0,5,1,1,23,0,23,23,0,no
4,2,0,0,0,0,1,1,4,0,4,4,0,no
5,0,0,0,0,0,1,1,5,0,5,5,0,no
3,0,0,0,0,0,1,1,3,0,3,3,0,no
3,0,0,0,0,0,1,1,3,0,3,3,0,no
6,2,0,0,0,3,1,1,6,0,6,6,0,no
7,2,0,0,0,3,1,1,7,0,7,7,0,no
3,0,0,0,0,0,1,1,3,0,3,3,0,no
4,2,0,0,0,0,1,1,4,0,4,4,0,no
6,1,1,1,0,1,1,1,6,0,6,6,0,no
14,2,2,1,1,2,1,1,14,0,14,14,0,no
3,2,0,0,0,0,1,1,3,0,3,3,0,no
5,2,1,1,0,0,1,1,5,0,5,5,0,no
3,1,0,0,0,0,1,1,3,0,3,3,0,no
8,0,1,1,0,2,1,1,8,0,8,8,0,no
4,2,0,0,0,0,1,1,4,0,4,4,0,no
3,0,0,0,0,0,1,1,3,0,3,3,0,yes
3,0,0,0,0,0,1,1,3,0,3,3,0,no
3,0,0,0,0,0,1,1,3,0,3,3,0,no
3,1,0,0,0,0,1,1,3,0,3,3,0,no
3,0,0,0,0,0,1,1,3,0,3,3,0,no
3,0,0,0,0,0,1,1,3,0,3,3,0,no
3,0,0,0,0,0,1,1,3,0,3,3,0,no
3,0,0,0,0,0,1,1,3,0,3,3,0,no
3,0,0,0,0,0,1,1,3,0,3,3,0,no
3,0,0,0,0,0,1,1,3,0,3,3,0,no
0,0,0,0,1,0,1,1,0,0,0,0,0,no
0,0,0,0,1,0,1,1,0,0,0,0,0,no
0,0,0,0,1,0,1,1,0,0,0,0,0,no
0,0,0,0,1,0,1,1,0,0,0,0,0,no
0,2,0,0,1,0,1,1,0,0,0,0,0,no
0,2,0,0,1,0,1,1,0,0,0,0,0,no
0,2,0,0,1,0,1,1,0,0,0,0,0,no
4,2,0,0,0,0,1,1,4,0,4,4,0,no
3,0,0,0,0,0,1,1,3,0,3,3,0,no
3,0,0,0,0,0,1,1,3,0,3,3,0,no
6,4,0,0,0,0,1,1,6,0,6,6,0,no
3,0,0,0,0,0,1,1,3,0,3,3,0,no
3,0,0,0,0,0,1,1,3,0,3,3,0,no
3,0,0,0,0,0,1,1,3,0,3,3,0,no
3,0,0,0,0,0,1,1,3,0,3,3,0,no
3,1,0,0,0,0,1,1,3,0,3,3,0,no
10,2,2,2,0,3,1,1,10,0,10,10,0,no
10,1,2,1,0,2,1,1,10,0,10,10,0,no
9,3,2,1,0,1,1,1,9,0,9,9,0,no
3,2,0,0,0,0,1,1,3,0,3,3,0,no
16,2,3,1,0,2,1,1,16,0,16,16,0,no
2,2,0,0,2,0,1,1,2,0,2,2,0,no
2,2,0,0,2,0,1,1,2,0,2,2,0,no
3,1,0,0,0,0,1,1,3,0,3,3,0,no
9,2,0,0,1,0,2,2,21,12,21,16.5,0,no
3,0,0,0,0,0,1,1,3,0,3,3,0,no
3,0,0,0,0,0,1,1,3,0,3,3,0,no
3,0,0,0,0,0,1,1,3,0,3,3,0,no
10,0,0,0,0,0,2,2,11,1,10,6,0,no
13,0,0,0,0,3,1,1,13,0,13,13,0,no
22,1,4,2,2,4,2,2,23,1,22,12,0,no
5,0,0,0,0,0,2,2,6,1,5,3.5,0,no
14,0,0,0,0,1,1,1,14,0,14,14,0,no
7,0,0,0,0,0,1,1,7,0,7,7,0,no
3,2,0,0,0,0,1,1,3,0,3,3,0,no
3,0,0,0,0,0,1,1,3,0,3,3,0,no
3,0,0,0,0,0,1,1,3,0,3,3,0,no
3,1,0,0,0,0,1,1,3,0,3,3,0,no
12,2,2,1,0,1,1,1,12,0,12,12,0,no
3,1,0,0,0,0,1,1,3,0,3,3,0,no
17,2,1,1,0,1,1,1,17,0,17,17,0,no
3,2,0,0,0,0,1,1,3,0,3,3,0,no
3,2,0,0,0,0,1,1,3,0,3,3,0,no
4,2,0,0,0,0,1,1,4,0,4,4,0,no
41,2,5,1,0,6,4,3,43,2,38,11.25,0,no
13,5,1,1,0,2,1,1,13,0,13,13,0,no
6,1,1,1,0,0,1,1,6,0,6,6,0,no
4,2,0,0,0,0,1,1,4,0,4,4,0,no
20,2,3,1,0,2,2,2,21,1,20,11,0,no
4,2,0,0,0,0,1,1,4,0,4,4,0,no
3,1,0,0,0,0,1,1,3,0,3,3,0,no
24,2,2,1,0,2,1,1,24,0,24,24,0,no
3,2,0,0,0,0,1,1,3,0,3,3,0,no
9,2,1,1,0,0,1,1,9,0,9,9,0,no
4,2,0,0,0,0,1,1,4,0,4,4,0,no
21,2,1,1,0,2,1,1,21,0,21,21,0,no
3,2,0,0,0,0,1,1,3,0,3,3,0,no
3,2,0,0,0,0,1,1,3,0,3,3,0,no
4,1,0,0,0,0,1,1,4,0,4,4,0,no
4,2,0,0,0,0,1,1,4,0,4,4,0,no
4,2,0,0,0,0,1,1,4,0,4,4,0,no
12,1,0,0,0,0,1,1,12,0,12,12,0,no
3,0,0,0,0,0,1,1,3,0,3,3,0,no
3,0,0,0,0,0,1,1,3,0,3,3,0,no
3,1,0,0,0,0,1,1,3,0,3,3,0,no
4,5,0,0,0,1,2,2,4,0,3,2,0,no
3,5,0,0,0,0,1,1,3,0,3,3,0,no
3,4,0,0,0,0,1,1,3,0,3,3,0,no
4,3,0,0,0,1,2,2,4,0,3,2,0,no
3,3,0,0,0,0,1,1,3,0,3,3,0,no
3,2,0,0,0,0,1,1,3,0,3,3,0,no
12,5,2,1,1,1,2,2,12,0,8,6,0,no
66,5,13,3,11,1,2,1,66,0,63,33,0,no
15,3,3,1,1,3,4,3,60,45,58,26.25,0,no
37,1,6,4,4,3,2,2,37,0,22,18.5,0,no
13,2,2,1,0,1,1,1,13,0,13,13,0,no
16,3,2,1,0,1,1,1,16,0,16,16,0,no
6,0,1,1,0,1,3,3,7,1,5,2.666667,0,no
8,0,1,1,0,1,2,2,20,0,14,10,0,no
9,0,3,1,1,3,2,2,20,0,14,10,0,no
20,0,4,4,1,3,2,2,20,0,14,10,0,no
4,2,1,1,2,0,2,2,5,1,4,3,0,no
4,2,1,1,1,0,2,2,5,1,4,3,0,no
8,2,2,1,2,0,1,1,8,0,8,8,0,no
38,2,8,2,8,0,2,1,38,0,35,19,0,no
19,5,3,1,3,0,1,1,19,0,19,19,0,no
5,2,1,1,2,0,1,1,5,0,5,5,0,no
5,2,1,1,1,0,1,1,5,0,5,5,0,no
49,0,7,3,0,8,2,1,56,7,56,31.5,0,no
3,0,0,0,0,0,2,1,6,3,6,4.5,0,no
3,2,0,0,0,0,1,1,3,0,3,3,0,no
3,2,0,0,0,0,1,1,3,0,3,3,0,no
12,1,1,1,0,2,1,1,12,0,12,12,0,no
3,0,0,0,0,0,1,1,3,0,3,3,0,no
9,4,1,1,0,0,1,1,9,0,9,9,0,no
3,3,0,0,0,0,1,1,3,0,3,3,0,no
3,1,0,0,0,0,1,1,3,0,3,3,0,no
0,5,0,0,1,0,1,1,0,0,0,0,0,no
0,4,0,0,0,0,1,1,0,0,0,0,0,no
3,1,0,0,0,0,4,2,6,3,5,2.25,1,no
6,4,1,1,0,2,1,1,6,0,6,6,0,no
3,1,1,1,1,1,1,1,3,0,3,3,0,no
0,3,0,0,1,0,1,1,0,0,0,0,0,no
3,5,0,0,0,0,1,1,3,0,3,3,0,no
3,5,0,0,0,0,1,1,3,0,3,3,0,no
22,0,2,2,0,3,2,2,22,0,19,11,0,no
3,4,0,0,0,0,1,1,3,0,3,3,0,no
20,1,4,2,0,3,1,1,20,0,20,20,0,no
0,5,0,0,0,0,1,1,0,0,0,0,0,no
21,4,4,3,0,4,1,1,21,0,21,21,0,no
3,2,0,0,0,0,1,1,3,0,3,3,0,no
3,2,0,0,0,0,1,1,3,0,3,3,0,no
3,3,0,0,0,0,1,1,3,0,3,3,0,no
37,0,4,2,4,3,2,2,37,0,36,18.5,0,no
3,2,0,0,0,0,1,1,3,0,3,3,0,no
25,2,3,2,4,3,2,2,25,0,24,12.5,0,no
4,2,0,0,1,0,1,1,4,0,4,4,0,no
5,2,0,0,1,0,1,1,5,0,5,5,0,no
5,5,0,0,0,0,1,1,5,0,5,5,0,no
20,0,4,2,0,2,1,1,20,0,20,20,0,yes
23,0,6,3,3,7,3,2,23,0,18,7.666667,0,yes
3,2,0,0,0,0,1,1,3,0,3,3,0,no
2,2,0,0,2,0,1,1,2,0,2,2,0,no
3,3,0,0,0,0,1,1,3,0,3,3,0,no
22,0,1,1,1,1,1,1,22,0,22,22,0,no
5,0,0,0,0,0,1,1,5,0,5,5,0,no
4,2,0,0,1,0,1,1,4,0,4,4,0,no
3,2,0,0,0,0,1,1,3,0,3,3,0,no
5,5,0,0,0,0,1,1,5,0,5,5,0,no
80,0,9,2,4,11,4,2,80,0,55,20,0,no
3,2,0,0,0,0,1,1,3,0,3,3,0,no
39,2,3,2,4,3,4,2,39,0,18,9.75,0,no
23,2,2,2,2,1,3,2,23,0,16,7.666667,0,no
5,2,0,0,0,0,2,2,5,0,4,2.5,0,no
9,0,2,2,0,1,2,1,9,0,6,4.5,0,no
4,2,0,0,1,0,1,1,4,0,4,4,0,no
3,2,0,0,0,0,1,1,3,0,3,3,0,no
4,4,0,0,0,0,1,1,4,0,4,4,0,no
26,0,3,1,1,2,3,2,26,0,24,8.666667,0,no
3,2,0,0,0,0,1,1,3,0,3,3,0,no
8,2,1,1,1,1,3,2,8,0,6,2.666667,0,no
3,1,0,0,0,0,1,1,3,0,3,3,0,no
7,1,1,1,1,0,1,1,7,0,7,7,0,no
3,4,0,0,0,0,1,1,3,0,3,3,0,no
3,5,0,0,0,0,1,1,3,0,3,3,0,no
3,4,0,0,0,0,1,1,3,0,3,3,0,no
2,1,0,0,0,0,1,1,2,0,2,2,0,no
8,3,1,1,0,1,1,1,8,0,8,8,0,no
3,5,0,0,0,0,1,1,3,0,3,3,0,no
3,1,0,0,0,0,1,1,3,0,3,3,0,no
4,2,0,0,0,0,1,1,4,0,4,4,0,no
3,0,0,0,0,0,1,1,3,0,3,3,0,no
3,0,0,0,0,0,1,1,3,0,3,3,0,no
12,2,2,1,0,1,2,2,12,0,8,6,0,no
8,0,1,1,0,1,1,1,8,0,8,8,0,no
0,1,0,0,1,0,1,1,0,0,0,0,0,no
0,3,0,0,1,0,1,1,0,0,0,0,0,no
0,1,0,0,1,0,1,1,0,0,0,0,0,no
0,1,0,0,1,0,1,1,0,0,0,0,0,no
0,5,0,0,1,0,1,1,0,0,0,0,0,no
0,5,0,0,1,0,1,1,0,0,0,0,0,no
0,0,0,0,1,0,1,1,0,0,0,0,0,no
0,4,0,0,1,0,1,1,0,0,0,0,0,no
3,0,0,0,0,0,1,1,3,0,3,3,0,no
3,1,0,0,0,0,1,1,3,0,3,3,0,no
4,5,0,0,0,0,1,1,4,0,4,4,0,no
16,5,2,2,0,1,1,1,16,0,16,16,0,no
16,4,2,2,0,1,1,1,16,0,16,16,0,no
61,3,10,2,2,11,1,1,61,0,61,61,0,no
3,2,0,0,0,0,1,1,3,0,3,3,0,no
3,2,0,0,0,0,1,1,3,0,3,3,0,no
16,5,2,2,0,1,1,1,16,0,16,16,0,no
55,4,10,2,2,10,1,1,55,0,55,55,0,no
4,1,1,1,1,0,1,1,4,0,4,4,0,no
27,5,5,1,0,3,1,1,27,0,27,27,0,no
11,4,2,2,0,1,1,1,11,0,11,11,0,no
11,4,2,2,0,1,1,1,11,0,11,11,0,no
11,3,2,2,0,1,1,1,11,0,11,11,0,no
6,2,0,0,0,0,1,1,6,0,6,6,0,no
3,1,0,0,0,0,1,1,3,0,3,3,0,no
3,4,0,0,0,0,1,1,3,0,3,3,0,no
43,3,2,1,6,4,2,2,43,0,35,21.5,1,no
0,3,0,0,0,0,1,1,0,0,0,0,0,no
0,4,0,0,0,0,1,1,0,0,0,0,0,no
5,3,1,1,1,1,1,1,5,0,5,5,0,no
3,3,0,0,0,0,1,1,3,0,3,3,0,no
2,0,0,0,0,0,1,1,2,0,2,2,0,no
12,2,0,0,4,1,2,2,12,0,8,6,1,no
21,2,1,1,2,0,1,1,21,0,21,21,0,no
4,2,0,0,2,0,1,1,4,0,4,4,1,no
3,2,0,0,2,0,1,1,3,0,3,3,1,no
12,0,0,0,2,0,1,1,12,0,12,12,0,no
3,2,0,0,1,0,1,1,3,0,3,3,0,no
3,2,0,0,1,0,1,1,3,0,3,3,0,no
4,4,0,0,0,0,1,1,4,0,4,4,0,no
3,0,0,0,0,0,1,1,3,0,3,3,0,no
3,3,0,0,0,0,1,1,3,0,3,3,0,no
7,0,1,1,0,0,1,1,7,0,7,7,0,no
0,1,0,0,1,0,1,1,0,0,0,0,0,no
0,4,0,0,1,0,1,1,0,0,0,0,0,no
0,3,0,0,1,0,1,1,0,0,0,0,0,no
0,0,0,0,1,0,1,1,0,0,0,0,0,no
0,3,0,0,1,0,1,1,0,0,0,0,0,no
0,1,0,0,1,0,1,1,0,0,0,0,0,no
3,2,0,0,0,0,1,1,3,0,3,3,0,no
3,3,0,0,0,0,1,1,3,0,3,3,0,no
7,4,1,1,0,0,1,1,7,0,7,7,0,no
2,0,0,0,0,0,1,1,2,0,2,2,0,no
42,3,6,4,0,2,2,2,43,1,42,22,0,no
3,0,0,0,0,0,1,1,3,0,3,3,0,no
3,1,0,0,0,0,1,1,3,0,3,3,0,no
34,3,4,1,2,3,1,1,34,0,34,34,0,no
11,4,2,1,0,0,1,1,11,0,11,11,0,no
29,2,3,1,1,2,1,1,29,0,29,29,0,no
10,0,2,1,1,0,1,1,10,0,10,10,0,no
3,0,0,0,0,0,1,1,3,0,3,3,0,no
7,0,1,1,0,1,1,1,7,0,7,7,0,no
4,2,0,0,0,0,1,1,4,0,4,4,0,no
4,2,0,0,0,0,1,1,4,0,4,4,0,no
29,5,4,1,2,3,1,1,29,0,29,29,0,no
8,3,1,1,0,1,1,1,8,0,8,8,0,no
24,4,3,1,1,2,1,1,24,0,24,24,0,no
9,3,1,1,1,1,1,1,9,0,9,9,0,no
5,4,1,1,0,0,1,1,5,0,5,5,0,no
17,1,5,4,0,0,2,2,18,1,17,9.5,0,no
7,4,0,0,0,0,1,1,7,0,7,7,0,no
14,0,1,1,0,2,1,1,14,0,14,14,0,no
42,1,8,3,2,7,1,1,42,0,42,42,0,no
22,0,4,2,0,1,1,1,22,0,22,22,0,no
6,0,1,1,2,0,1,1,6,0,6,6,0,no
36,0,5,2,1,3,1,1,36,0,36,36,0,no
31,5,7,3,2,2,1,1,31,0,31,31,0,no
8,4,1,1,0,1,1,1,8,0,8,8,0,no
31,5,5,2,1,3,1,1,31,0,31,31,0,no
8,3,1,1,0,1,1,1,8,0,8,8,0,no
14,4,3,2,0,1,1,1,14,0,14,14,0,no
7,4,1,1,1,0,1,1,7,0,7,7,0,no
0,4,0,0,0,0,1,1,0,0,0,0,0,no
7,3,1,1,1,0,1,1,7,0,7,7,0,no
0,3,0,0,0,0,1,1,0,0,0,0,0,no
7,3,1,1,1,0,1,1,7,0,7,7,0,no
0,3,0,0,0,0,1,1,0,0,0,0,0,no
7,3,1,1,1,0,1,1,7,0,7,7,0,no
0,3,0,0,0,0,1,1,0,0,0,0,0,no
7,4,1,1,1,0,1,1,7,0,7,7,0,no
0,4,0,0,0,0,1,1,0,0,0,0,0,no
4,1,0,0,0,1,1,1,4,0,4,4,0,no
3,1,0,0,0,0,1,1,3,0,3,3,0,no
7,5,1,1,1,0,1,1,7,0,7,7,0,no
0,5,0,0,0,0,1,1,0,0,0,0,0,no
7,4,1,1,1,0,1,1,7,0,7,7,0,no
0,4,0,0,0,0,1,1,0,0,0,0,0,no
7,5,1,1,1,0,1,1,7,0,7,7,0,no
0,5,0,0,0,0,1,1,0,0,0,0,0,no
7,4,1,1,1,0,1,1,7,0,7,7,0,no
0,4,0,0,0,0,1,1,0,0,0,0,0,no
7,4,1,1,1,0,1,1,7,0,7,7,0,no
0,4,0,0,0,0,1,1,0,0,0,0,0,no
7,3,1,1,1,0,1,1,7,0,7,7,0,no
0,3,0,0,0,0,1,1,0,0,0,0,0,no
21,7,2,1,0,0,1,1,21,0,21,21,0,no
5,3,0,0,1,1,1,1,5,0,5,5,0,no
16,4,2,1,0,0,1,1,16,0,16,16,0,no
7,4,1,1,0,0,1,1,7,0,7,7,0,no
18,1,2,2,0,3,1,1,18,0,18,18,1,no
75,1,4,1,2,25,3,1,75,0,67,25,1,no
3,0,0,0,0,0,1,1,3,0,3,3,0,no
5,0,1,1,0,0,1,1,5,0,5,5,0,no
7,5,1,1,1,0,1,1,7,0,7,7,0,no
7,1,1,1,0,0,1,1,7,0,7,7,0,no
9,5,2,1,1,0,1,1,9,0,9,9,0,no
107,1,16,7,2,20,2,1,107,0,103,53.5,0,no
62,3,11,5,2,14,1,1,62,0,62,62,0,no
4,1,0,0,0,1,1,1,4,0,4,4,0,no
13,2,2,2,1,2,1,1,13,0,13,13,0,no
42,1,9,6,1,7,2,1,43,1,42,22,0,no
3,0,0,0,1,0,2,1,4,1,3,2.5,0,no
5,1,1,1,0,0,1,1,5,0,5,5,0,no
17,7,2,2,1,1,1,1,17,0,17,17,0,no
11,4,1,1,0,2,2,1,11,0,9,5.5,0,no
6,0,1,1,0,1,1,1,6,0,6,6,0,no
3,0,0,0,0,0,1,1,3,0,3,3,0,no
3,0,0,0,0,0,1,1,3,0,3,3,0,no
3,0,0,0,0,0,1,1,3,0,3,3,0,no
137,1,15,3,9,37,5,2,139,2,104,28.2,0,no
11,2,1,1,0,5,1,1,11,0,11,11,0,no
64,0,10,3,5,10,3,2,64,0,60,21.333333,0,no
3,1,0,0,0,0,1,1,3,0,3,3,0,no
33,6,3,2,3,7,3,3,34,1,32,11.666667,1,no
10,0,2,2,2,0,2,1,11,1,10,6,0,no
4,0,0,0,1,0,1,1,4,0,4,4,0,no
5,1,1,1,0,0,1,1,5,0,5,5,0,no
5,1,1,1,0,0,1,1,5,0,5,5,0,no
5,1,1,1,0,0,1,1,5,0,5,5,0,no
4,2,0,0,0,0,2,2,5,1,4,3,0,no
15,3,1,1,0,1,1,1,15,0,15,15,0,no
3,0,0,0,0,0,1,1,3,0,3,3,0,no
19,1,4,1,2,3,1,1,19,0,19,19,0,no
11,2,1,1,0,2,1,1,11,0,11,11,0,no
14,2,1,1,1,2,1,1,14,0,14,14,0,no
127,1,23,5,7,41,4,2,134,7,93,35.25,1,no
4,0,0,0,1,0,1,1,4,0,4,4,0,no
7,4,0,0,0,0,1,1,7,0,7,7,0,no
6,4,1,1,0,0,1,1,6,0,6,6,0,no
29,0,5,3,2,5,1,1,29,0,29,29,0,no
6,3,0,0,0,0,1,1,6,0,6,6,0,no
22,0,2,2,2,5,1,1,22,0,22,22,0,no
6,3,0,0,0,0,1,1,6,0,6,6,0,no
22,0,2,2,1,5,1,1,22,0,22,22,0,no
17,1,0,0,1,0,18,3,111,94,85,11.388889,1,no
14,4,2,2,0,1,3,1,5,9,5,4.666667,0,no
5,2,0,0,0,2,3,1,9,4,8,4.333333,0,no
8,4,0,0,0,2,3,2,11,3,10,4.666667,0,no
25,1,4,2,0,5,3,3,26,1,21,9,1,no
66,1,15,4,3,10,4,2,67,1,51,17,1,no
15,1,4,3,2,2,1,1,15,0,15,15,0,no
19,2,1,1,0,4,2,1,19,0,13,9.5,1,no
37,3,8,4,1,4,1,1,37,0,37,37,0,no
3,1,0,0,0,0,1,1,3,0,3,3,0,no
7,1,1,1,0,2,1,1,7,0,7,7,1,no
3,1,0,0,0,0,2,2,4,1,3,2.5,1,no
10,1,1,1,0,2,2,2,11,1,10,6,0,no
20,0,0,0,0,0,1,1,20,0,20,20,0,no
3,0,0,0,0,0,1,1,3,0,3,3,0,no
15,2,1,1,0,3,4,2,19,4,9,5.75,1,no
3,0,0,0,0,0,1,1,3,0,3,3,0,no
7,1,1,1,0,0,2,2,8,1,8,4.5,1,no
3,0,0,0,0,0,1,1,3,0,3,3,0,no
3,0,0,0,0,0,0,0,0,0,0,0,0,no
18,1,1,1,0,6,3,2,3,2,2,1.666667,1,no
14,2,1,1,1,1,3,2,25,11,25,12,1,no
5,2,0,0,0,1,3,2,1,7,4,2.666667,1,no
45,0,8,5,0,8,6,3,97,52,81,24.833333,1,no
11,4,1,1,0,1,3,1,15,4,10,6.333333,0,no
30,1,6,3,2,3,1,1,30,0,30,30,0,no
16,1,2,2,0,0,3,1,18,2,16,6.666667,0,no
11,0,2,1,0,0,8,4,25,62,52,10.875,1,no
3,0,0,0,0,0,5,3,6,15,14,4.2,1,no
25,1,4,3,1,0,9,2,33,8,23,4.555556,1,yes
27,0,3,1,2,0,10,3,37,10,19,4.7,1,no
33,0,7,3,2,0,3,2,35,2,33,12.333333,0,yes
14,1,1,1,1,1,1,1,14,0,14,14,0,yes
18,0,4,2,0,0,2,1,19,1,18,10,0,no
6,2,1,1,0,0,1,1,6,0,6,6,1,no
3,1,0,0,0,0,1,1,3,0,3,3,0,no
3,0,0,0,0,0,1,1,3,0,3,3,0,no
3,2,0,0,0,0,1,1,3,0,3,3,0,no
3,0,0,0,0,0,1,1,3,0,3,3,0,no
3,0,0,0,0,0,1,1,3,0,3,3,0,no
40,3,8,5,0,8,2,2,40,0,29,20,0,no
3,0,0,0,0,0,1,1,3,0,3,3,0,no
3,1,0,0,0,0,1,1,3,0,3,3,0,no
2,1,0,0,0,0,1,1,2,0,2,2,0,no
4,0,0,0,0,0,1,1,4,0,4,4,0,no
3,0,0,0,1,0,1,1,3,0,3,3,0,no
5,1,1,1,0,0,1,1,5,0,5,5,0,no
8,1,1,1,0,0,1,1,8,0,8,8,0,no
22,3,3,1,2,0,1,1,22,0,22,22,0,no
17,5,3,1,2,0,1,1,17,0,17,17,0,no
3,1,0,0,0,0,1,1,3,0,3,3,0,no
4,0,0,0,0,0,1,1,4,0,4,4,0,no
4,2,0,0,0,0,1,1,4,0,4,4,0,no
3,0,0,0,0,0,1,1,3,0,3,3,0,no
3,0,0,0,0,0,1,1,3,0,3,3,0,no
5,1,0,0,0,0,1,1,5,0,5,5,0,no
3,0,0,0,0,0,0,0,0,0,0,0,0,no
5,0,1,1,0,0,0,0,0,0,0,0,0,no
6,5,1,1,0,0,0,0,0,0,0,0,0,no
3,0,0,0,0,0,1,1,3,0,3,3,0,no
6,5,1,1,0,0,1,1,6,0,6,6,0,no
5,3,0,0,0,0,1,1,5,0,5,5,0,no
3,2,0,0,0,0,1,1,0,2,2,2,0,no
3,0,0,0,0,0,0,0,0,0,0,0,0,no
3,0,0,0,0,0,0,0,0,0,0,0,0,no
4,1,0,0,0,0,1,1,1,0,1,1,1,no
3,0,0,0,0,0,0,0,0,0,0,0,0,no
5,5,1,1,0,0,2,1,5,0,3,2.5,0,no
5,1,0,0,0,0,2,2,7,2,7,4.5,0,no
6,0,0,0,1,0,1,1,6,0,6,6,0,no
50,0,10,4,1,1,9,3,51,28,25,8.777778,1,no
7,0,1,1,0,0,1,1,7,0,7,7,0,no
5,0,0,0,0,0,1,1,5,0,5,5,0,no
3,1,0,0,0,0,1,1,3,0,3,3,0,no
3,0,0,0,0,0,1,1,3,0,3,3,0,no
3,0,0,0,0,0,2,2,4,1,3,2.5,0,no
3,0,0,0,0,0,1,1,3,0,3,3,0,no
0,0,0,0,1,0,1,1,0,0,0,0,0,no
8,1,1,1,1,3,1,1,8,0,8,8,0,no
33,3,3,1,0,7,2,2,34,1,34,17.5,0,no
9,1,1,1,0,2,1,1,9,0,9,9,0,no
6,0,1,1,0,0,2,2,7,1,6,4,0,no
12,1,2,2,0,3,1,1,12,0,12,12,0,no
5,0,1,1,0,0,1,1,5,0,5,5,0,no
21,1,3,2,0,4,1,1,21,0,21,21,0,no
4,0,0,0,0,1,2,2,5,1,5,3,0,no
13,0,0,0,0,0,3,3,13,0,9,4.333333,0,no
36,1,5,4,0,9,1,1,36,0,36,36,0,no
17,1,2,1,0,3,1,1,17,0,17,17,0,no
16,1,2,1,0,3,1,1,16,0,16,16,0,no
4,2,0,0,0,0,1,1,4,0,4,4,0,no
13,2,0,0,0,0,1,1,13,0,13,13,0,no
3,2,0,0,0,0,2,2,4,1,4,2.5,0,no
14,2,1,1,0,1,1,1,14,0,14,14,0,no
9,1,0,0,1,0,1,1,9,0,9,9,0,no
3,1,0,0,0,0,1,1,3,0,3,3,0,no
3,3,0,0,0,0,1,1,3,0,3,3,0,no
7,3,1,1,0,0,1,1,7,0,7,7,0,no
5,0,0,0,0,0,1,1,5,0,5,5,0,no
3,0,0,0,0,0,1,1,3,0,3,3,0,no
3,0,0,0,0,0,1,1,3,0,3,3,0,no
3,0,0,0,0,0,1,1,3,0,3,3,0,no
36,1,5,3,2,6,1,1,36,0,36,36,0,no
5,0,0,0,0,0,1,1,5,0,5,5,0,no
3,0,0,0,0,0,1,1,3,0,3,3,0,no
3,0,0,0,0,0,1,1,3,0,3,3,0,no
3,0,0,0,0,0,1,1,3,0,3,3,0,no
7,1,1,0,2,4,1,1,7,0,7,7,0,no
0,0,0,0,1,0,1,1,0,0,0,0,0,no
0,1,0,0,1,0,1,1,0,0,0,0,0,no
4,0,0,0,0,0,1,1,4,0,4,4,0,no
15,1,2,1,0,2,1,1,15,0,15,15,0,no
3,0,0,0,0,0,1,1,3,0,3,3,0,no
4,1,0,0,0,0,1,1,4,0,4,4,0,no
4,0,0,0,0,0,1,1,4,0,4,4,0,no
3,0,0,0,0,0,1,1,3,0,3,3,0,no
3,0,0,0,0,0,1,1,3,0,3,3,0,no
3,0,0,0,0,0,1,1,3,0,3,3,0,no
25,1,4,1,0,3,1,1,25,0,25,25,0,no
5,0,0,0,0,0,1,1,5,0,5,5,0,no
3,0,0,0,0,0,1,1,3,0,3,3,0,no
3,0,0,0,0,0,1,1,3,0,3,3,0,no
3,0,0,0,0,0,1,1,3,0,3,3,0,no
7,1,1,0,2,4,1,1,7,0,7,7,0,no
3,1,0,0,0,0,1,1,3,0,3,3,0,no
0,0,0,0,0,0,1,1,0,0,0,0,0,no
0,0,0,0,0,0,1,1,0,0,0,0,0,no
0,0,0,0,0,0,1,1,0,0,0,0,0,no
5,0,0,0,0,1,1,1,5,0,5,5,0,no
0,1,0,0,0,0,1,1,0,0,0,0,0,no
11,1,1,1,0,2,1,1,11,0,11,11,0,no
4,0,0,0,0,0,1,1,4,0,4,4,0,no
3,0,0,0,0,0,1,1,3,0,3,3,0,no
3,0,0,0,0,0,1,1,3,0,3,3,0,no
3,0,0,0,0,0,1,1,3,0,3,3,0,no
28,1,4,2,0,6,1,1,28,0,28,28,0,no
4,0,0,0,0,0,1,1,4,0,4,4,0,no
3,0,0,0,0,0,1,1,3,0,3,3,0,no
3,0,0,0,0,0,1,1,3,0,3,3,0,no
3,0,0,0,0,0,1,1,3,0,3,3,0,no
28,1,4,2,0,6,1,1,28,0,28,28,0,no
3,0,0,0,0,0,1,1,3,0,3,3,0,no
19,2,3,2,0,4,1,1,19,0,19,19,0,no
3,0,0,0,0,0,1,1,3,0,3,3,0,no
3,0,0,0,0,0,1,1,3,0,3,3,0,no
3,0,0,0,0,0,1,1,3,0,3,3,0,no
15,1,2,2,0,3,1,1,15,0,15,15,0,no
6,2,0,0,0,0,0,0,0,0,0,0,0,no
14,1,2,1,0,0,0,0,0,0,0,0,0,no
3,0,0,0,0,0,1,1,3,0,3,3,1,no
3,0,0,0,0,0,0,0,0,0,0,0,0,no
54,2,12,6,0,7,1,1,2,0,2,2,1,no
3,0,0,0,0,0,0,0,0,0,0,0,0,no
24,1,4,2,0,2,0,0,0,0,0,0,0,no
2,0,0,0,0,0,1,1,2,0,2,2,1,no
7,2,1,1,0,1,1,1,7,0,7,7,1,no
14,1,1,1,0,4,2,2,15,1,14,8,1,no
4,1,0,0,0,1,4,2,6,2,3,2,1,no
28,1,5,3,1,4,1,1,28,0,28,28,0,no
9,1,0,1,0,2,3,2,10,1,5,3.666667,1,no
13,2,0,1,0,5,2,1,13,0,8,6.5,1,no
3,1,0,0,0,0,1,1,3,0,3,3,0,no
16,0,2,1,0,2,2,1,16,0,11,8,1,no
5,0,0,0,0,1,1,1,5,0,5,5,0,no
14,1,3,3,2,1,2,1,14,0,9,7,1,no
14,1,1,2,0,3,2,2,15,1,14,8,1,no
19,2,3,3,0,4,3,2,20,1,18,7,1,no
16,2,3,2,0,2,1,1,16,0,16,16,0,no
16,2,2,2,1,3,4,1,6,3,4,2.25,1,no
23,0,4,3,1,4,3,2,25,2,25,9,1,no
9,1,2,2,0,2,1,1,1,1,2,2,0,no
5,0,1,1,0,0,0,0,0,0,0,0,0,no
17,1,2,1,1,4,2,1,1,3,2,2,1,no
3,0,0,0,0,0,1,1,3,0,3,3,0,no
26,1,4,2,2,6,2,1,5,1,4,3,1,no
19,0,1,1,0,0,1,1,19,0,19,19,0,no
4,0,0,0,0,0,2,1,4,0,3,2,0,no
9,1,2,2,0,2,2,1,10,1,9,5.5,0,no
43,3,7,1,2,11,3,2,6,2,4,2.666667,0,no
22,1,4,2,3,3,2,1,23,1,22,12,1,no
21,1,4,2,1,2,2,1,21,0,19,10.5,0,no
47,2,8,2,2,10,2,1,47,0,46,23.5,0,no
14,2,1,2,2,2,1,1,1,1,2,2,0,no
17,0,4,3,1,3,5,3,16,4,5,4,1,no
3,1,0,0,0,0,1,1,3,0,3,3,1,no
2,0,0,0,0,0,1,1,2,0,2,2,0,no
2,1,0,0,0,0,1,1,2,0,2,2,0,no
5,1,1,1,0,0,1,1,5,0,5,5,0,no
2,0,0,0,0,0,1,1,2,0,2,2,0,no
0,1,0,0,1,0,1,1,0,0,0,0,0,no
0,3,0,0,1,0,1,1,0,0,0,0,0,no
5,2,0,0,0,0,2,1,5,0,4,2.5,1,no
31,1,7,3,1,1,4,1,32,1,26,8.25,1,no
9,1,2,1,1,1,1,1,9,0,9,9,0,no
7,1,1,1,0,0,1,1,7,0,7,7,1,no
3,0,0,0,0,0,1,1,3,0,3,3,1,no
7,0,1,1,0,0,1,1,7,0,7,7,0,no
3,0,0,0,0,0,1,1,3,0,3,3,0,no
4,0,0,0,0,0,1,1,4,0,4,4,1,no
3,0,0,0,0,0,1,1,3,0,3,3,0,no
4,0,0,0,0,0,1,1,4,0,4,4,0,no
41,2,8,3,2,4,1,1,41,0,41,41,0,no
3,2,0,0,0,0,1,1,0,8,8,8,1,no
13,2,2,2,0,2,2,1,13,0,12,6.5,1,no
34,0,7,3,0,3,5,1,35,1,29,7.2,1,no
10,0,2,2,0,0,2,2,2,2,2,2,1,no
11,0,1,1,0,0,1,1,11,0,11,11,0,no
8,0,1,1,0,1,1,1,1,0,1,1,1,no
3,0,0,0,0,0,0,0,0,0,0,0,0,no
22,2,3,3,0,3,2,1,3,0,2,1.5,1,no
11,0,0,0,0,1,2,1,11,0,10,5.5,1,no
22,1,4,1,2,3,3,2,31,9,30,13.333333,1,no
31,1,8,6,0,5,4,3,32,1,23,8.25,1,no
8,1,1,1,0,2,1,1,8,0,8,8,1,no
20,2,5,3,1,3,2,2,20,0,18,10,1,no
47,1,7,3,4,8,2,1,48,1,47,24.5,0,no
22,1,4,2,1,2,1,1,22,0,22,22,1,no
4,1,0,0,0,1,1,1,4,0,4,4,0,no
34,1,5,4,0,5,3,2,35,1,30,12,1,no
58,1,9,4,0,10,5,3,59,1,48,12,1,no
9,2,2,1,3,0,1,1,9,0,9,9,1,no
20,2,5,4,0,3,1,1,20,0,20,20,1,no
3,2,0,0,0,0,2,2,6,3,6,4.5,1,no
5,1,1,1,0,0,1,1,5,0,5,5,1,no
0,1,0,0,1,0,1,1,0,0,0,0,0,no
0,1,0,0,2,0,1,1,0,0,0,0,0,no
52,6,10,2,2,0,1,1,52,0,52,52,0,no
24,1,4,1,3,2,2,1,24,0,19,12,0,no
30,1,5,2,1,5,3,3,33,3,32,12,0,no
14,0,4,3,1,3,4,2,17,3,14,5,0,no
3,0,0,0,0,0,4,2,14,11,12,6.25,0,no
7,2,0,0,1,2,2,2,11,4,11,7.5,1,no
24,1,5,2,2,4,5,3,26,2,11,5.6,1,no
5,1,1,1,0,0,1,1,5,0,5,5,0,no
28,0,4,2,0,1,5,3,37,9,35,9.2,1,no
7,0,1,1,0,0,1,1,7,0,7,7,0,no
11,2,2,2,0,2,1,1,11,0,11,11,0,no
10,1,2,2,0,0,1,1,10,0,10,10,0,no
3,1,0,0,0,0,1,1,3,0,3,3,0,no
3,1,0,0,0,0,2,1,4,1,3,2.5,0,no
10,0,2,1,0,0,1,1,10,0,10,10,0,no
30,3,4,2,0,0,2,1,30,0,27,15,0,no
10,2,1,1,0,0,1,1,10,0,10,10,0,no
5,1,0,0,0,0,1,1,5,0,5,5,1,no
10,2,1,1,0,1,1,1,10,0,10,10,1,no
3,1,0,0,0,0,1,1,3,0,3,3,1,no
6,0,1,1,0,0,1,1,6,0,6,6,1,no
3,0,0,0,0,0,1,1,3,0,3,3,1,no
7,1,1,1,0,1,1,1,7,0,7,7,1,no
5,0,0,0,0,1,1,1,5,0,5,5,1,no
3,1,0,0,0,0,1,1,3,0,3,3,1,no
3,1,0,0,0,0,1,1,3,0,3,3,1,no
3,3,0,0,0,0,1,1,3,0,3,3,0,no
0,3,0,0,1,0,1,1,0,0,0,0,0,no
0,2,0,0,0,0,1,1,0,0,0,0,0,no
0,1,0,0,0,0,1,1,0,0,0,0,0,no
3,1,0,0,0,0,1,1,3,0,3,3,0,no
12,2,1,1,0,1,2,1,13,1,12,7,0,no
11,1,1,1,0,1,2,1,12,1,11,6.5,0,no
6,4,0,0,0,0,1,1,6,0,6,6,0,no
9,1,0,0,0,3,1,1,9,0,9,9,0,no
22,0,4,1,0,1,2,2,24,2,24,13,1,no
11,2,2,1,0,1,2,2,12,1,11,6.5,1,no
3,0,0,0,0,0,1,1,3,0,3,3,0,no
3,1,0,0,0,0,1,1,3,0,3,3,0,no
3,0,0,0,1,0,1,1,3,0,3,3,0,no
3,1,0,0,0,0,1,1,3,0,3,3,0,no
3,1,0,0,0,0,1,1,3,0,3,3,0,no
3,1,0,0,0,0,1,1,3,0,3,3,0,no
3,2,0,0,0,0,1,1,3,0,3,3,0,no
9,0,1,1,0,0,2,1,9,0,5,4.5,1,no
3,0,0,0,0,0,1,1,3,0,3,3,0,no
10,2,0,0,0,0,1,1,10,0,10,10,0,no
11,2,2,2,0,2,1,1,11,0,11,11,0,no
16,0,4,4,1,5,2,2,16,0,14,8,0,no
3,0,0,0,0,0,1,1,3,0,3,3,0,no
3,0,0,0,0,0,1,1,3,0,3,3,0,no
21,2,4,3,0,6,1,1,21,0,21,21,0,no
6,3,0,0,0,2,1,1,6,0,6,6,0,no
3,0,0,0,0,0,1,1,3,0,3,3,0,no
25,1,5,2,1,4,3,2,28,3,27,10.333333,0,no
3,0,0,0,0,0,1,1,3,0,3,3,0,no
63,0,11,6,0,8,5,3,65,2,58,13.4,1,no
38,3,6,3,0,6,1,1,38,0,38,38,0,no
12,0,2,2,0,0,1,1,12,0,12,12,0,no
6,1,1,1,0,0,1,1,6,0,6,6,0,no
0,1,0,0,1,0,1,1,0,0,0,0,0,no
7,1,1,1,1,0,2,2,8,1,7,4.5,0,no
0,3,0,0,1,0,1,1,0,0,0,0,0,no
4,2,0,0,0,0,1,1,4,0,4,4,0,no
3,0,0,0,0,0,1,1,3,0,3,3,0,no
3,0,0,0,0,0,1,1,3,0,3,3,0,no
3,0,0,0,0,0,1,1,3,0,3,3,0,no
3,0,0,0,0,0,1,1,3,0,3,3,0,no
29,0,5,4,1,8,3,2,30,1,23,10.333333,0,no
23,0,2,2,2,6,5,2,26,3,20,5.8,0,no
4,2,0,0,0,0,1,1,4,0,4,4,0,no
5,0,0,0,0,1,1,1,5,0,5,5,0,no
7,5,0,0,0,0,1,1,7,0,7,7,0,no
3,2,0,0,0,0,1,1,3,0,3,3,0,no
52,3,7,4,0,6,1,1,52,0,52,52,0,no
3,0,0,0,0,0,1,1,3,0,3,3,0,no
6,0,1,1,0,0,1,1,6,0,6,6,0,no
3,0,0,0,0,0,1,1,3,0,3,3,0,no
7,0,1,1,0,0,1,1,7,0,7,7,0,no
3,1,0,0,0,0,1,1,3,0,3,3,0,no
0,1,0,0,0,0,3,1,2,25,23,9,1,no
0,1,0,0,0,0,4,1,2,97,66,24.75,1,no
0,2,0,0,0,0,3,1,2,21,19,7.666667,1,no
0,0,0,0,0,0,1,1,0,0,0,0,0,no
0,1,0,0,0,0,2,1,1,21,20,11,0,no
0,1,0,0,0,0,1,1,0,0,0,0,0,no
0,1,0,0,0,0,1,1,0,0,0,0,0,no
0,3,0,0,0,0,2,1,1,18,17,9.5,0,no
0,1,0,0,0,0,1,1,0,0,0,0,0,no
0,1,0,0,0,0,1,1,0,0,0,0,0,no
0,2,0,0,0,0,1,1,0,0,0,0,0,no
16,3,1,1,2,0,1,1,16,0,16,16,0,no
11,0,2,2,0,2,2,1,11,0,8,5.5,1,no
35,1,3,2,0,2,6,3,38,3,23,6.833333,1,no
9,0,1,1,0,1,2,1,9,0,7,4.5,1,no
10,1,2,2,0,3,2,1,11,1,10,6,0,no
39,1,10,3,0,5,4,2,41,2,29,10.75,0,no
81,1,14,4,2,17,4,2,84,3,73,21.75,1,no
32,0,11,9,2,6,3,2,33,1,19,11.333333,0,no
3,0,0,0,0,0,1,1,3,0,3,3,0,no
15,2,2,2,0,3,2,2,19,4,19,11.5,1,no
27,2,5,3,0,2,6,2,33,6,30,6.5,1,no
7,3,1,1,1,1,1,1,7,0,7,7,0,no
40,0,0,0,0,0,2,1,41,1,40,21,0,no
51,1,11,5,0,10,1,1,51,0,51,51,0,no
3,1,0,0,0,0,1,1,3,0,3,3,0,no
17,0,0,0,0,0,1,1,17,0,17,17,0,no
12,3,2,1,0,1,2,2,13,1,13,7,0,no
12,1,0,0,0,3,2,1,13,1,12,7,0,no
5,2,0,0,0,2,1,1,5,0,5,5,0,no
3,0,0,0,0,0,1,1,3,0,3,3,0,no
3,0,0,0,0,0,1,1,3,0,3,3,0,no
3,0,0,0,0,0,1,1,3,0,3,3,0,no
60,2,11,3,1,6,3,2,60,0,52,20,1,no
16,2,1,1,0,1,1,1,16,0,16,16,1,no
14,1,2,2,0,1,1,1,14,0,14,14,0,no
12,1,2,2,0,2,1,1,12,0,12,12,0,no
4,2,0,0,0,1,2,1,5,1,4,3,0,no
13,3,2,1,0,3,2,2,17,4,17,10.5,1,no
8,2,1,1,1,1,1,1,8,0,8,8,0,no
18,1,2,2,0,3,2,1,20,2,20,11,1,no
14,1,2,2,0,1,1,1,14,0,14,14,0,no
10,2,1,2,0,1,2,1,10,0,7,5,1,no
19,1,3,2,0,2,1,1,19,0,19,19,0,no
26,5,7,2,0,4,3,2,28,2,26,10,0,no
3,2,0,0,0,0,1,1,3,0,3,3,0,no
3,0,0,0,0,0,1,1,3,0,3,3,0,no
3,0,0,0,0,0,1,1,3,0,3,3,0,no
3,0,0,0,0,0,1,1,3,0,3,3,0,no
3,0,0,0,0,0,1,1,3,0,3,3,0,no
3,0,0,0,0,0,1,1,3,0,3,3,0,no
3,0,0,0,0,0,1,1,3,0,3,3,0,no
3,0,0,0,0,0,1,1,3,0,3,3,0,no
3,0,0,0,0,0,1,1,3,0,3,3,0,no
3,0,0,0,0,0,1,1,3,0,3,3,0,no
2,0,0,0,0,0,1,1,2,0,2,2,0,no
2,1,0,0,0,0,1,1,2,0,2,2,0,no
3,1,0,0,0,0,1,1,3,0,3,3,0,no
2,0,0,0,0,0,1,1,2,0,2,2,0,no
0,0,0,0,1,0,1,1,0,0,0,0,0,no
0,0,0,0,1,0,1,1,0,0,0,0,0,no
0,0,0,0,1,0,1,1,0,0,0,0,0,no
0,0,0,0,1,0,1,1,0,0,0,0,0,no
0,0,0,0,1,0,1,1,0,0,0,0,0,no
0,0,0,0,1,0,1,1,0,0,0,0,0,no
0,0,0,0,1,0,1,1,0,0,0,0,0,no
0,1,0,0,0,0,1,1,0,11,11,11,0,no
0,1,0,0,0,0,2,1,16,16,16,16,1,no
5,3,0,0,0,1,1,1,5,0,5,5,0,no
6,2,1,1,0,0,1,1,6,0,6,6,0,no
0,0,0,0,0,0,2,1,3,3,3,3,0,no
0,0,0,0,0,0,2,1,3,3,3,3,0,no
0,1,0,0,0,0,5,1,6,45,32,10.2,1,no
0,0,0,0,0,0,2,1,3,3,3,3,0,no
5,3,0,0,0,0,1,1,5,0,5,5,0,no
8,1,1,1,0,1,2,1,11,3,11,7,0,no
5,1,1,1,0,0,1,1,5,0,5,5,0,no
3,0,0,0,0,0,1,1,3,0,3,3,0,no
3,0,0,0,0,0,2,1,4,1,3,2.5,0,no
3,1,0,0,0,0,2,1,11,8,11,9.5,0,no
3,0,0,0,0,0,2,1,4,1,3,2.5,0,no
3,2,0,0,0,0,1,1,3,0,3,3,0,no
4,1,0,0,0,0,1,1,4,0,4,4,0,no
4,1,0,0,0,0,1,1,4,0,4,4,0,no
4,0,0,0,0,0,1,1,4,0,4,4,0,no
8,1,0,0,0,0,1,1,8,0,8,8,0,no
5,1,1,1,0,0,1,1,5,0,5,5,0,no
14,1,2,2,1,3,1,1,14,0,14,14,0,no
3,0,0,0,0,0,1,1,3,0,3,3,0,no
9,0,1,1,0,2,1,1,9,0,9,9,0,no
3,1,0,0,0,0,1,1,3,0,3,3,0,no
3,0,0,0,0,0,2,1,4,1,4,2.5,0,no
14,1,2,2,0,4,1,1,14,0,14,14,0,no
7,0,1,1,0,0,1,1,7,0,7,7,0,no
4,0,0,0,0,0,1,1,4,0,4,4,0,no
0,0,0,0,0,0,1,1,0,0,0,0,0,no
0,1,0,0,0,0,1,1,0,0,0,0,0,no
0,1,0,0,0,0,1,1,0,0,0,0,0,no
0,0,0,0,0,0,1,1,0,0,0,0,0,no
3,1,0,0,0,0,1,1,3,0,3,3,0,no
37,0,10,5,0,5,1,1,37,0,37,37,0,no
3,1,0,0,0,0,1,1,3,0,3,3,0,no
5,2,0,0,0,0,1,1,5,0,5,5,0,no
5,0,1,1,0,0,0,0,0,0,0,0,0,no
8,1,1,1,0,1,1,1,4,0,4,4,0,no
3,0,0,0,0,0,0,0,0,0,0,0,0,no
8,0,2,2,0,1,1,1,1,1,2,2,0,no
3,0,0,0,0,0,0,0,0,0,0,0,0,no
4,1,0,0,0,0,0,0,0,0,0,0,0,no
5,0,0,0,0,0,0,0,0,0,0,0,0,no
3,0,0,0,0,0,0,0,0,0,0,0,0,no
3,0,0,0,0,0,0,0,0,0,0,0,0,no
3,0,0,0,0,0,0,0,0,0,0,0,0,no
3,0,0,0,0,0,0,0,0,0,0,0,0,no
3,0,0,0,0,0,0,0,0,0,0,0,0,no
3,0,0,0,0,0,0,0,0,0,0,0,0,no
10,1,2,2,0,0,0,0,0,0,0,0,0,no
6,0,1,1,0,0,0,0,0,0,0,0,0,no
3,1,0,0,1,0,0,0,0,0,0,0,0,no
6,1,1,1,0,0,1,1,1,1,2,2,0,no
3,1,0,0,0,0,0,0,0,0,0,0,0,no
6,2,0,0,0,0,0,0,0,0,0,0,0,no
9,0,1,0,0,1,0,0,0,0,0,0,0,no
3,0,0,0,0,0,0,0,0,0,0,0,0,no
3,0,0,0,0,0,0,0,0,0,0,0,0,no
6,0,0,0,0,0,0,0,0,0,0,0,0,no
0,1,0,0,0,0,1,1,0,0,0,0,0,no
0,0,0,0,0,0,1,1,0,0,0,0,0,no
0,2,0,0,0,0,1,1,0,0,0,0,0,no
0,0,0,0,0,0,1,1,0,0,0,0,0,no
0,1,0,0,0,0,1,1,0,0,0,0,0,no
0,0,0,0,0,0,1,1,0,0,0,0,0,no
0,1,0,0,0,0,1,1,0,0,0,0,0,no
0,1,0,0,0,0,1,1,0,0,0,0,0,no
0,1,0,0,0,0,1,1,0,0,0,0,0,no
0,2,0,0,0,0,1,1,0,0,0,0,0,no
0,0,0,0,0,0,1,1,0,0,0,0,0,no
0,0,0,0,0,0,1,1,0,0,0,0,0,no
2,1,0,0,0,0,0,0,0,0,0,0,0,no
2,0,0,0,0,0,0,0,0,0,0,0,0,no
3,3,0,0,0,0,0,0,0,0,0,0,0,no
3,3,0,0,0,0,0,0,0,0,0,0,0,no
3,0,0,0,0,0,0,0,0,0,0,0,0,no
3,1,0,0,0,0,0,0,0,0,0,0,0,no
3,1,0,0,0,0,0,0,0,0,0,0,0,no
3,2,0,0,0,0,0,0,0,0,0,0,0,no
3,3,0,0,0,0,0,0,0,0,0,0,0,no
3,0,0,0,0,0,0,0,0,0,0,0,0,no
3,3,0,0,0,0,0,0,0,0,0,0,0,no
3,3,0,0,0,0,0,0,0,0,0,0,0,no
3,1,0,0,0,0,0,0,0,0,0,0,0,no
3,3,0,0,0,0,0,0,0,0,0,0,0,no
3,1,0,0,0,0,0,0,0,0,0,0,0,no
3,2,0,0,0,0,0,0,0,0,0,0,0,no
3,3,0,0,0,0,0,0,0,0,0,0,0,no
3,1,0,0,0,0,2,1,4,1,3,2.5,0,no
3,2,0,0,0,0,1,1,3,0,3,3,0,no
3,0,0,0,0,0,1,1,3,0,3,3,0,no
2,0,0,0,0,0,1,1,2,0,2,2,0,no
3,1,0,0,0,0,1,1,3,0,3,3,0,no
4,2,0,0,0,0,1,1,4,0,4,4,0,no
4,2,0,0,0,0,1,1,4,0,4,4,0,no
37,1,8,4,1,9,1,1,37,0,37,37,0,no
0,4,0,0,0,0,0,0,0,0,0,0,0,no
0,3,0,0,0,0,0,0,0,0,0,0,0,no
0,3,0,0,0,0,0,0,0,0,0,0,0,no
0,2,0,0,0,0,0,0,0,0,0,0,0,no
0,3,0,0,1,0,0,0,0,0,0,0,0,no
0,4,0,0,0,0,0,0,0,0,0,0,0,no
0,3,0,0,0,0,1,1,0,0,0,0,0,no
0,2,0,0,0,0,0,0,0,0,0,0,0,no
15,1,0,0,0,1,9,3,26,11,12,4.111111,1,no
4,2,0,0,0,0,1,1,4,0,4,4,0,no
19,3,2,1,0,0,8,3,21,2,11,2.875,1,no
3,1,0,0,0,0,1,1,0,9,9,9,0,no
3,6,0,0,0,0,3,3,8,8,7,5.333333,1,no
6,7,1,1,1,0,1,1,6,0,6,6,0,no
3,3,0,0,1,0,2,2,7,7,7,7,1,no
3,5,0,0,1,0,4,3,9,9,7,4.5,1,no
3,5,0,0,1,0,4,3,11,8,7,4.75,1,no
23,0,5,1,0,0,6,2,25,2,12,4.5,1,no
3,2,0,0,0,0,0,0,0,0,0,0,0,no
3,4,0,0,0,0,2,1,1,9,8,5,0,no
11,5,1,1,1,1,1,1,11,0,11,11,0,yes
10,1,1,1,1,1,4,1,5,5,3,2.5,1,no
3,0,0,0,0,0,0,0,0,0,0,0,0,no
3,0,0,0,0,0,1,1,3,0,3,3,0,no
3,0,0,0,0,0,1,1,3,0,3,3,1,no
3,0,0,0,0,0,0,0,0,0,0,0,0,no
9,3,1,1,1,1,1,1,1,1,2,2,0,no
9,3,1,1,1,1,2,1,10,1,9,5.5,0,no
6,3,0,0,0,1,1,1,6,0,6,6,0,no
5,2,0,0,0,1,1,1,5,0,5,5,0,no
7,3,0,0,0,1,2,2,8,1,7,4.5,0,no
0,0,0,0,1,0,1,1,0,0,0,0,1,no
0,1,0,0,1,0,1,1,0,0,0,0,1,no
6,1,0,0,0,0,1,1,6,0,6,6,0,no
7,1,0,0,0,1,7,2,21,14,13,5,1,no
3,1,0,0,0,0,2,1,11,8,11,9.5,0,no
3,3,0,0,0,0,1,1,3,0,3,3,0,no
3,3,0,0,0,0,1,1,3,0,3,3,0,no
13,4,1,1,2,0,3,2,15,2,13,5.666667,1,no
3,4,0,0,0,0,1,1,3,0,3,3,0,no
4,0,0,0,0,0,1,1,4,0,4,4,0,no
54,3,10,4,0,7,3,3,55,1,53,18.666667,0,no
19,5,0,0,1,2,2,1,26,7,26,16.5,1,no
31,4,5,3,2,3,5,3,34,3,28,7.4,1,no
9,2,1,1,1,1,1,1,9,0,9,9,1,no
10,1,1,1,0,1,1,1,10,0,10,10,0,no
10,1,1,1,0,1,1,1,10,0,10,10,0,no
23,2,2,1,2,2,2,2,23,0,19,11.5,1,no
87,4,17,5,5,16,6,2,92,5,53,16.166667,1,no
11,3,1,1,0,3,3,1,12,1,9,4.333333,0,no
20,4,4,2,2,2,5,2,26,6,21,6.4,1,no
8,3,1,1,2,0,1,1,8,0,8,8,0,no
81,3,17,5,5,16,3,2,82,1,70,27.666667,0,no
8,3,1,1,1,0,1,1,8,0,8,8,0,no
3,2,0,0,0,0,1,1,3,0,3,3,1,no
9,2,0,0,2,1,2,2,9,0,8,4.5,1,no
3,1,0,0,0,0,1,1,3,0,3,3,1,no
3,3,0,0,0,0,1,1,3,0,3,3,1,no
3,1,0,0,0,0,1,1,3,0,3,3,0,no
4,3,0,0,0,0,2,1,8,4,8,6,0,no
4,0,0,0,0,0,2,2,4,0,3,2,1,no
6,3,0,0,0,0,1,1,6,0,6,6,0,no
14,1,2,2,2,3,1,1,14,0,14,14,0,no
3,1,0,0,0,0,0,0,0,0,0,0,0,no
22,2,4,2,1,3,0,0,0,0,0,0,0,no
3,1,0,0,1,0,0,0,0,0,0,0,0,no
3,1,0,0,0,0,0,0,0,0,0,0,0,no
18,4,2,1,0,2,4,3,7,9,8,4,1,no
3,0,0,0,0,0,0,0,0,0,0,0,0,no
3,1,0,0,0,0,1,1,1,1,2,2,1,no
19,0,2,1,0,2,1,1,1,0,1,1,0,no
9,4,1,1,0,0,0,0,0,0,0,0,0,no
3,0,0,0,0,0,0,0,0,0,0,0,0,no
10,2,2,2,1,0,2,2,11,1,10,6,0,no
3,0,0,0,1,0,1,1,3,0,3,3,0,no
3,1,0,0,0,0,1,1,3,0,3,3,0,no
8,4,1,1,1,1,1,1,8,0,8,8,0,no
3,0,0,0,0,0,1,1,3,0,3,3,0,no
3,1,0,0,0,0,1,1,3,0,3,3,0,no
18,0,2,1,0,2,1,1,18,0,18,18,0,no
9,4,1,1,0,0,1,1,9,0,9,9,0,no
3,1,0,0,0,0,0,0,0,0,0,0,0,no
3,0,0,0,0,0,0,0,0,0,0,0,0,no
7,0,0,0,0,2,1,1,1,1,2,2,0,no
3,3,0,0,0,0,1,1,1,1,2,2,0,no
3,0,0,0,0,0,1,1,3,0,3,3,0,no
4,1,0,0,0,0,0,0,0,0,0,0,0,no
17,6,0,0,0,3,1,1,17,0,17,17,0,no
0,0,0,0,0,0,0,0,0,0,0,0,0,no
0,0,0,0,0,0,0,0,0,0,0,0,0,no
10,3,3,1,0,0,0,0,0,0,0,0,0,no
3,1,0,0,0,0,0,0,0,0,0,0,0,no
0,3,0,0,0,0,0,0,0,0,0,0,0,no
3,1,0,0,0,0,1,1,1,1,2,2,1,no
3,2,0,0,0,0,0,0,0,0,0,0,0,no
28,3,5,2,3,6,1,1,4,0,4,4,0,no
5,2,0,0,0,0,0,0,0,0,0,0,0,no
8,1,0,0,0,2,2,1,2,2,2,2,1,no
4,2,0,0,0,0,1,1,4,0,4,4,0,no
0,0,0,0,1,0,1,1,0,0,0,0,0,no
0,0,0,0,1,0,1,1,0,0,0,0,1,no
0,1,0,0,1,0,1,1,0,0,0,0,0,no
0,2,0,0,1,0,1,1,0,0,0,0,0,no
0,1,0,0,1,0,1,1,0,0,0,0,0,no
0,1,0,0,1,0,1,1,0,0,0,0,0,no
0,1,0,0,1,0,1,1,0,0,0,0,1,no
3,1,0,0,0,0,1,1,3,0,3,3,0,no
16,2,3,2,1,2,1,1,16,0,16,16,0,no
43,2,9,3,0,12,4,1,46,3,44,12.25,0,no
19,2,3,2,0,4,1,1,19,0,19,19,0,no
6,2,1,1,0,0,1,1,6,0,6,6,0,no
4,2,0,0,0,0,1,1,4,0,4,4,0,no
8,5,2,1,0,0,1,1,8,0,8,8,0,no
5,2,0,0,0,0,1,1,5,0,5,5,0,no
8,2,2,1,0,0,1,1,8,0,8,8,0,no
5,3,0,0,0,0,1,1,5,0,5,5,0,no
9,5,3,2,0,0,1,1,9,0,9,9,0,no
8,8,0,0,0,0,1,1,8,0,8,8,0,no
12,0,1,1,0,1,5,1,13,4,9,3.4,1,no
18,2,3,1,2,0,1,1,18,0,18,18,0,no
7,4,0,0,0,0,1,1,1,0,1,1,0,no
3,0,0,0,0,0,3,2,3,3,2,2,1,no
3,2,0,0,0,0,1,1,3,0,3,3,0,no
4,2,0,0,0,0,0,0,0,0,0,0,0,no
10,0,1,1,0,1,1,1,1,1,2,2,0,no
3,0,0,0,0,0,0,0,0,0,0,0,0,no
3,0,0,0,0,0,0,0,0,0,0,0,0,no
3,0,0,0,0,0,0,0,0,0,0,0,0,no
3,0,0,0,0,0,0,0,0,0,0,0,0,no
10,4,0,0,0,1,1,1,10,0,10,10,0,no
3,0,0,0,0,0,1,1,3,0,3,3,0,no
3,0,0,0,0,0,1,1,3,0,3,3,0,no
3,0,0,0,0,0,1,1,3,0,3,3,0,no
3,0,0,0,0,0,1,1,3,0,3,3,0,no
11,0,2,2,0,2,2,1,12,1,11,6.5,0,no
3,0,0,0,0,0,1,1,3,0,3,3,0,no
11,0,2,2,0,2,2,1,12,1,11,6.5,0,no
3,0,0,0,0,0,1,1,3,0,3,3,0,no
3,0,0,0,0,0,1,1,3,0,3,3,0,no
3,0,0,0,0,0,2,1,4,1,3,2.5,0,no
3,1,0,0,0,0,1,1,3,0,3,3,0,no
28,4,3,2,2,3,1,1,28,0,28,28,0,no
5,4,0,0,1,1,1,1,5,0,5,5,0,no
27,4,5,1,1,7,1,1,27,0,27,27,0,no
21,4,3,3,0,0,1,1,21,0,21,21,0,no
26,3,4,1,1,8,1,1,26,0,26,26,0,no
7,5,0,0,0,2,1,1,7,0,7,7,0,no
7,3,1,1,0,0,1,1,7,0,7,7,0,no
23,4,3,2,2,3,1,1,23,0,23,23,0,no
10,5,2,2,1,0,1,1,10,0,10,10,0,no
7,5,0,0,0,0,1,1,7,0,7,7,0,no
8,3,1,1,1,0,2,1,9,1,8,5,0,no
7,5,0,0,0,0,1,1,7,0,7,7,0,no
23,2,3,2,4,0,1,1,23,0,23,23,0,no
9,2,1,1,1,0,1,1,9,0,9,9,0,no
16,5,1,1,0,0,6,2,23,7,20,5,1,no
3,1,0,0,0,0,3,2,2,7,5,3,0,no
12,3,1,1,0,2,5,2,14,2,8,3.2,0,no
4,1,0,0,0,0,0,0,0,0,0,0,0,no
3,3,0,0,0,0,1,1,0,26,26,26,0,no
4,5,0,0,1,1,3,2,37,33,33,23.333333,1,no
3,2,0,0,0,0,1,1,1,1,2,2,0,no
65,3,6,3,4,3,6,3,66,1,30,11.166667,1,no
11,4,2,1,0,0,1,1,1,1,2,2,0,no
15,2,1,1,0,1,3,2,16,1,12,5.666667,1,no
4,5,0,0,1,1,1,1,4,0,4,4,0,no
9,0,1,1,0,1,2,1,4,1,3,2.5,1,no
30,6,3,1,3,3,5,3,38,8,32,9.2,1,no
6,1,1,1,0,1,0,0,0,0,0,0,0,no
3,0,0,0,0,0,0,0,0,0,0,0,0,no
3,0,0,0,0,0,0,0,0,0,0,0,0,no
3,0,0,0,0,0,0,0,0,0,0,0,0,no
3,0,0,0,0,0,0,0,0,0,0,0,0,no
3,0,0,0,0,0,0,0,0,0,0,0,0,no
3,0,0,0,0,0,1,1,1,1,2,2,0,no
3,0,0,0,0,0,0,0,0,0,0,0,0,no
3,0,0,0,0,0,0,0,0,0,0,0,0,no
19,2,2,1,1,2,9,3,34,52,38,9.555556,1,no
7,1,1,1,0,0,2,1,5,1,4,3,1,no
10,2,1,1,0,1,1,1,1,1,2,2,0,no
12,0,2,1,1,1,2,1,13,1,12,7,0,no
36,1,5,2,2,0,6,2,32,3,25,5.833333,1,no
16,2,1,1,1,3,1,1,16,0,16,16,0,no
3,1,0,0,0,0,4,2,20,17,18,9.25,1,no
11,0,2,2,0,1,1,1,1,1,2,2,0,no
5,1,1,1,0,1,1,1,5,0,5,5,0,no
4,1,0,0,0,0,2,2,6,2,6,4,0,no
20,2,3,2,1,0,1,1,20,0,20,20,0,no
8,2,1,1,0,0,1,1,8,0,8,8,0,no
10,2,1,1,0,0,2,2,11,1,10,6,1,no
4,0,0,0,0,1,1,1,4,0,4,4,0,no
60,0,6,3,4,3,7,3,49,3,30,7.428571,1,no
3,0,0,0,0,0,1,1,3,0,3,3,0,no
35,2,5,3,3,0,1,1,35,0,35,35,0,no
23,2,3,2,2,0,1,1,23,0,23,23,0,no
4,1,0,0,0,0,2,1,4,0,3,2,0,no
12,2,2,2,1,0,1,1,12,0,12,12,0,no
5,3,0,0,1,0,1,1,5,0,5,5,0,no
3,0,0,0,0,0,3,2,5,2,3,2.333333,1,no
3,0,0,0,0,0,1,1,3,0,3,3,0,no
3,0,0,0,0,0,1,1,3,0,3,3,0,no
3,0,0,0,1,0,3,2,5,2,3,2.333333,1,no
3,1,0,0,0,0,1,1,3,0,3,3,0,no
3,1,0,0,0,0,1,1,3,0,3,3,0,no
5,3,1,1,1,0,2,1,4,1,3,2.5,1,no
5,2,0,0,0,0,2,1,5,0,4,2.5,0,no
16,1,3,2,1,0,2,1,16,0,15,8,0,no
11,2,2,2,2,0,1,1,11,0,11,11,0,no
6,4,0,0,0,1,2,1,6,0,5,3,0,no
8,3,0,0,1,1,1,1,8,0,8,8,0,no
9,4,0,0,1,1,1,1,9,0,9,9,0,no
8,3,0,0,1,1,1,1,8,0,8,8,0,no
4,0,0,0,0,0,2,2,2,1,2,1.5,0,no
12,5,1,0,0,0,1,1,12,0,12,12,0,no
5,2,0,0,1,0,0,0,0,0,0,0,0,no
4,1,0,0,0,0,1,1,1,0,1,1,0,no
3,0,0,0,0,0,1,1,3,0,3,3,0,no
7,0,1,1,0,0,1,1,7,0,7,7,0,no
3,1,0,0,1,0,0,0,0,0,0,0,0,no
3,0,0,0,0,0,1,1,3,0,3,3,0,no
3,0,0,0,0,0,0,0,0,0,0,0,0,no
3,0,0,0,0,0,1,1,3,0,3,3,0,no
3,0,0,0,0,0,1,1,3,0,3,3,0,no
8,1,1,1,0,1,0,0,0,0,0,0,0,no
3,0,0,0,0,0,1,1,3,0,3,3,0,no
3,0,0,0,0,0,1,1,3,0,3,3,0,no
3,0,0,0,0,0,1,1,3,0,3,3,0,no
3,0,0,0,0,0,1,1,3,0,3,3,0,no
3,0,0,0,0,0,1,1,3,0,3,3,0,no
3,0,0,0,0,0,2,1,2,2,2,2,0,no
3,0,0,0,0,0,2,1,4,1,3,2.5,1,no
3,0,0,0,0,0,2,1,4,1,3,2.5,0,no
52,2,8,2,3,11,6,2,56,4,43,10,0,no
32,2,5,4,6,5,2,1,33,1,32,17,0,no
28,1,7,3,0,5,7,2,32,4,23,5.142857,1,no
23,0,4,2,0,5,5,3,8,3,3,2.2,0,no
19,0,4,2,0,3,4,3,23,4,21,6.75,0,no
3,1,0,0,0,0,1,1,3,0,3,3,0,no
3,1,0,0,0,0,1,1,3,0,3,3,0,no
3,1,0,0,0,0,1,1,3,0,3,3,0,no
8,6,0,0,0,0,2,2,9,1,9,5,0,no
9,4,0,0,0,0,1,1,9,0,9,9,0,no
3,0,0,0,0,0,2,1,2,2,2,2,1,no
4,0,0,0,0,0,1,1,4,0,4,4,0,no
68,2,12,3,2,2,3,2,69,1,47,23.333333,0,no
9,2,2,2,0,0,1,1,9,0,9,9,0,no
8,3,1,1,0,0,1,1,8,0,8,8,1,no
5,2,0,0,0,0,1,1,1,1,2,2,0,no
8,4,1,1,1,0,1,1,1,1,2,2,1,no
4,0,0,0,0,0,0,0,0,0,0,0,0,no
16,0,2,2,0,1,5,2,13,2,8,3,1,no
30,4,3,2,4,2,5,2,14,3,9,3.4,1,yes
9,3,1,1,2,0,2,2,10,1,9,5.5,1,yes
11,2,2,2,0,0,2,1,11,0,9,5.5,1,no
4,2,0,0,0,0,1,1,0,3,3,3,0,no
6,2,0,0,0,1,0,0,0,0,0,0,0,no
3,0,0,0,0,0,0,0,0,0,0,0,0,no
3,0,0,0,0,0,1,1,1,1,2,2,0,no
3,3,0,0,0,0,1,1,1,1,2,2,0,no
12,0,1,1,0,3,1,1,12,0,12,12,0,no
13,6,0,0,1,0,1,1,13,0,13,13,0,no
3,0,0,0,0,0,0,0,0,0,0,0,0,no
33,0,7,4,1,6,6,2,28,13,11,6.833333,0,no
3,0,0,0,0,0,0,0,0,0,0,0,0,no
17,5,4,2,1,2,9,3,12,21,9,3.666667,1,no
4,2,0,0,0,0,5,2,8,4,4,2.4,0,no
3,0,0,0,0,0,0,0,0,0,0,0,0,no
7,1,1,1,2,0,4,1,7,3,3,2.5,0,no
14,0,4,3,0,2,2,1,14,0,7,7,0,no
7,3,0,0,1,0,4,1,10,3,4,3.25,0,no
16,2,2,1,0,1,2,1,32,0,16,16,0,no
10,1,2,2,0,3,2,1,20,0,10,10,0,no
7,1,1,1,0,1,2,1,14,0,7,7,0,no
9,0,2,2,0,2,2,1,18,0,9,9,0,no
3,0,0,0,0,0,1,1,3,0,3,3,0,no
20,3,5,2,1,1,3,1,36,1,21,12.333333,0,no
13,1,2,1,0,2,2,1,26,0,13,13,0,no
3,0,0,0,0,0,2,1,6,0,3,3,0,no
23,0,3,2,1,3,5,1,28,5,15,6.6,0,no
3,0,0,0,0,0,1,1,3,0,3,3,0,no
4,2,0,0,0,0,2,1,8,0,4,4,0,no
7,2,0,0,0,0,4,2,10,3,7,3.25,1,no
5,0,1,1,0,1,5,2,9,4,5,2.6,1,no
5,0,1,1,0,1,2,1,5,0,3,2.5,1,no
33,5,7,3,2,3,7,3,37,4,25,5.857143,1,no
0,2,0,0,1,0,1,1,0,0,0,0,1,no
3,5,0,0,0,0,1,1,3,0,3,3,0,no
3,1,0,0,0,0,2,1,4,1,3,2.5,0,no
4,3,0,0,1,0,1,1,4,0,4,4,0,no
3,3,0,0,0,0,1,1,3,0,3,3,0,no
4,5,0,0,1,0,2,2,5,1,4,3,1,no
3,2,0,0,0,0,1,1,3,0,3,3,0,no
2,0,0,0,0,0,1,1,2,0,2,2,0,no
19,2,2,2,1,0,1,1,19,0,19,19,0,no
5,3,0,0,0,0,1,1,5,0,5,5,0,no
12,0,0,0,0,1,1,1,12,0,12,12,0,no
3,0,0,0,0,0,1,1,3,0,3,3,1,no
7,1,1,1,0,2,1,1,7,0,7,7,0,no
3,2,0,0,0,0,2,1,4,1,3,2.5,0,no
4,1,0,0,0,0,1,1,4,0,4,4,0,no
3,1,0,0,0,0,1,1,3,0,3,3,0,no
4,0,0,0,0,0,1,1,4,0,4,4,1,no
16,1,4,3,0,2,2,1,17,1,16,9,1,no
9,1,2,2,0,1,0,0,0,0,0,0,0,no
4,0,0,0,0,0,0,0,0,0,0,0,0,no
3,0,0,0,0,0,0,0,0,0,0,0,0,no
3,0,0,0,0,0,0,0,0,0,0,0,0,no
3,0,0,0,0,0,0,0,0,0,0,0,0,no
4,0,0,0,0,0,0,0,0,0,0,0,0,no
3,1,0,0,0,0,0,0,0,0,0,0,0,no
3,1,0,0,0,0,0,0,0,0,0,0,0,no
3,1,0,0,0,0,0,0,0,0,0,0,0,no
3,0,0,0,0,0,0,0,0,0,0,0,0,no
4,0,0,0,0,0,1,1,4,0,4,4,0,no
3,0,0,0,0,0,1,1,3,0,3,3,0,no
3,0,0,0,0,0,1,1,3,0,3,3,1,no
3,0,0,0,0,0,1,1,3,0,3,3,0,no
3,0,0,0,0,0,1,1,3,0,3,3,0,no
3,0,0,0,0,0,1,1,3,0,3,3,0,no
3,0,0,0,0,0,1,1,3,0,3,3,1,no
3,0,0,0,0,0,1,1,3,0,3,3,1,no
3,1,0,0,0,0,1,1,3,0,3,3,0,no
3,1,0,0,0,0,1,1,3,0,3,3,0,no
4,1,0,0,0,1,1,1,4,0,4,4,0,no
3,1,0,0,0,0,1,1,3,0,3,3,0,no
3,1,0,0,0,0,1,1,3,0,3,3,0,no
3,1,0,0,0,0,1,1,3,0,3,3,1,no
3,1,0,0,0,0,1,1,3,0,3,3,0,no
3,1,0,0,0,0,1,1,3,0,3,3,0,no
3,1,0,0,0,0,1,1,3,0,3,3,0,no
3,1,0,0,0,0,1,1,3,0,3,3,1,no
3,0,0,0,0,0,1,1,3,0,3,3,0,no
4,1,0,0,0,0,1,1,4,0,4,4,0,no
3,0,0,0,0,0,1,1,3,0,3,3,0,no
3,0,0,0,0,0,1,1,3,0,3,3,0,no
3,0,0,0,0,0,1,1,3,0,3,3,0,no
3,0,0,0,0,0,1,1,3,0,3,3,1,no
3,0,0,0,0,0,1,1,3,0,3,3,0,no
3,0,0,0,0,0,2,1,6,0,3,3,0,no
3,0,0,0,0,0,1,1,3,0,3,3,0,no
7,0,1,1,1,1,2,1,7,0,4,3.5,1,no
3,0,0,0,0,0,1,1,3,0,3,3,0,no
4,1,0,0,0,0,2,1,5,1,4,3,1,no
4,1,0,0,0,0,2,1,5,1,4,3,1,no
4,1,0,0,0,0,2,1,5,1,4,3,1,no
4,1,0,0,0,0,1,1,4,0,4,4,1,no
4,1,0,0,0,0,1,1,4,0,4,4,0,no
4,1,0,0,0,0,2,1,8,0,4,4,0,no
4,1,0,0,0,0,2,1,5,1,4,3,1,no
4,1,0,0,0,0,2,1,5,1,4,3,1,no
4,1,0,0,0,0,3,1,6,2,4,2.666667,1,no
3,0,0,0,0,0,1,1,3,0,3,3,0,no
4,1,0,0,0,0,1,1,4,0,4,4,0,no
3,0,0,0,0,0,1,1,3,0,3,3,0,yes
3,0,0,0,0,0,1,1,3,0,3,3,0,no
3,0,0,0,0,0,1,1,3,0,3,3,0,no
3,0,0,0,0,0,1,1,3,0,3,3,0,no
3,0,0,0,0,0,1,1,3,0,3,3,0,no
3,0,0,0,0,0,1,1,3,0,3,3,0,no
3,0,0,0,0,0,1,1,3,0,3,3,0,no
3,0,0,0,0,0,1,1,3,0,3,3,0,no
7,0,1,1,0,1,1,1,7,0,7,7,0,no
3,0,0,0,0,0,1,1,3,0,3,3,0,no
7,0,1,1,0,1,2,2,8,1,7,4.5,1,no
11,0,2,1,1,3,1,1,11,0,11,11,0,no
3,0,0,0,0,0,1,1,3,0,3,3,0,no
3,0,0,0,0,0,1,1,3,0,3,3,0,no
3,0,0,0,0,0,1,1,3,0,3,3,0,no
3,0,0,0,0,0,1,1,3,0,3,3,0,no
3,0,0,0,0,0,1,1,3,0,3,3,0,no
3,0,0,0,0,0,1,1,3,0,3,3,0,no
3,0,0,0,0,0,1,1,3,0,3,3,0,no
3,0,0,0,0,0,1,1,3,0,3,3,0,no
3,0,0,0,0,0,1,1,3,0,3,3,0,no
3,0,0,0,0,0,1,1,3,0,3,3,0,no
3,0,0,0,0,0,1,1,3,0,3,3,0,no
7,0,1,1,1,1,2,1,7,0,4,3.5,1,no
3,0,0,0,0,0,1,1,3,0,3,3,0,no
3,0,0,0,0,0,1,1,3,0,3,3,0,no
3,0,0,0,0,0,1,1,3,0,3,3,0,no
3,0,0,0,0,0,1,1,3,0,3,3,0,no
3,1,0,0,0,0,1,1,3,0,3,3,0,no
4,1,0,0,0,0,1,1,4,0,4,4,0,no
4,1,0,0,0,0,2,1,5,1,4,3,1,no
4,1,0,0,0,0,1,1,4,0,4,4,0,no
4,1,0,0,0,0,1,1,4,0,4,4,0,no
4,1,0,0,0,0,2,1,5,1,4,3,1,no
4,1,0,0,0,0,2,1,5,1,4,3,1,no
4,1,0,0,0,0,2,1,5,1,4,3,1,no
4,1,0,0,0,0,2,1,5,1,4,3,1,no
7,1,1,1,0,0,3,2,9,2,7,3.666667,1,no
4,1,0,0,0,0,1,1,4,0,4,4,0,no
4,1,0,0,0,0,1,1,4,0,4,4,0,no
4,1,0,0,0,0,2,1,5,1,4,3,1,no
4,1,0,0,0,0,2,1,5,1,4,3,1,no
4,1,0,0,0,0,1,1,4,0,4,4,0,no
4,1,0,0,0,0,1,1,4,0,4,4,0,no
4,1,0,0,0,0,1,1,4,0,4,4,1,no
3,1,0,0,0,0,1,1,3,0,3,3,0,no
4,1,0,0,0,0,1,1,4,0,4,4,1,no
4,1,0,0,0,0,1,1,4,0,4,4,1,no
4,1,0,0,0,0,1,1,4,0,4,4,0,no
4,1,0,0,0,0,2,1,5,1,4,3,1,no
4,1,0,0,0,0,1,1,4,0,4,4,0,no
4,1,0,0,0,0,2,1,5,1,4,3,1,no
4,1,0,0,0,0,3,1,6,2,4,2.666667,1,no
3,0,0,0,0,0,1,1,3,0,3,3,0,no
3,0,0,0,0,0,1,1,3,0,3,3,0,no
15,2,2,1,2,2,2,1,16,1,15,8.5,0,no
9,3,2,2,1,2,1,1,9,0,9,9,0,no
5,2,0,0,0,0,2,2,6,1,6,3.5,0,no
21,6,3,1,1,3,3,2,23,2,22,8.333333,1,no
2,0,0,0,1,0,1,1,2,0,2,2,1,no
0,1,0,0,0,0,1,1,0,0,0,0,0,no
0,1,0,0,0,0,1,1,0,0,0,0,0,no
6,1,1,1,1,0,5,3,10,4,6,2.8,1,no
15,2,3,2,1,2,1,1,15,0,15,15,0,no
28,2,4,2,2,1,1,1,28,0,28,28,0,no
31,3,5,3,0,2,1,1,31,0,31,31,0,no
22,3,3,2,1,2,2,1,23,1,22,12,0,no
23,5,4,2,2,1,1,1,23,0,23,23,0,no
16,2,3,1,1,3,1,1,16,0,16,16,0,no
11,4,2,2,1,0,1,1,11,0,11,11,0,no
12,3,2,2,0,1,1,1,12,0,12,12,0,no
4,2,0,0,0,0,3,3,6,2,4,2.666667,0,no
3,5,0,0,0,0,1,1,3,0,3,3,1,no
21,2,2,2,2,2,1,1,21,0,21,21,0,yes
10,1,1,1,0,2,1,1,10,0,10,10,1,no
5,1,0,0,0,1,1,1,5,0,5,5,1,no
23,0,2,1,0,2,1,1,23,0,23,23,0,no
3,0,0,0,0,0,1,1,3,0,3,3,0,no
13,0,2,1,0,1,1,1,13,0,13,13,0,no
15,4,2,2,2,1,3,1,15,0,7,5,1,yes
12,2,2,2,0,4,1,1,12,0,12,12,0,no
3,0,0,0,0,0,1,1,3,0,3,3,0,no
8,3,1,1,0,0,1,1,8,0,8,8,0,no
3,0,0,0,0,0,1,1,3,0,3,3,0,no
3,0,0,0,0,0,1,1,3,0,3,3,0,no
2,0,0,0,0,0,1,1,2,0,2,2,0,no
6,2,0,0,0,0,2,2,8,2,8,5,0,no
19,5,1,1,0,2,1,1,19,0,19,19,1,no
24,6,2,1,2,1,1,1,24,0,24,24,1,no
8,0,1,1,0,0,1,1,8,0,8,8,1,no
50,2,4,1,4,4,2,2,52,2,52,27,0,yes
3,2,0,0,0,0,1,1,3,0,3,3,1,no
7,1,1,1,0,1,2,2,11,8,11,9.5,1,no
3,1,0,0,0,0,2,2,11,8,11,9.5,1,no
10,1,1,1,0,2,1,1,10,0,10,10,1,no
3,1,0,0,0,0,3,3,7,4,6,3.666667,1,no
3,0,0,0,0,0,1,1,3,0,3,3,0,no
3,2,0,0,0,0,1,1,3,0,3,3,1,no
3,1,0,0,0,0,1,1,3,0,3,3,1,no
19,3,2,1,2,1,1,1,19,0,19,19,1,no
9,4,1,1,1,1,1,1,9,0,9,9,1,no
14,2,1,1,0,2,1,1,14,0,14,14,1,no
4,2,0,0,0,1,1,1,4,0,4,4,1,no
45,4,4,1,4,4,4,2,47,2,44,12.25,1,yes
12,0,1,1,1,0,2,2,14,2,14,8,1,no
7,3,1,1,1,0,2,2,9,2,9,5.5,1,no
9,4,1,1,1,0,3,1,9,0,7,3,1,yes
3,1,0,0,0,0,1,1,3,0,3,3,1,no
32,6,3,1,2,7,1,1,32,0,32,32,1,no
19,3,2,1,1,3,1,1,19,0,19,19,1,no
3,0,0,0,1,0,1,1,3,0,3,3,1,no
16,2,2,1,0,4,1,1,16,0,16,16,0,no
13,0,3,3,0,0,1,1,13,0,13,13,0,no
6,0,1,1,0,0,1,1,6,0,6,6,0,no
20,0,4,2,0,1,1,1,20,0,20,20,0,no
12,2,2,2,0,4,1,1,12,0,12,12,0,no
3,0,0,0,0,0,1,1,3,0,3,3,0,no
8,3,1,1,0,0,1,1,8,0,8,8,0,no
3,0,0,0,0,0,1,1,3,0,3,3,0,no
3,0,0,0,0,0,1,1,3,0,3,3,0,no
2,0,0,0,0,0,1,1,2,0,2,2,0,no
3,2,0,0,0,0,2,1,4,1,4,2.5,1,no
5,3,0,0,0,0,1,1,5,0,5,5,0,no
4,2,0,0,0,1,2,2,5,1,4,3,0,no
10,1,2,1,0,1,2,1,11,1,10,6,1,no
3,0,0,0,0,0,1,1,3,0,3,3,0,no
3,0,0,0,0,0,1,1,3,0,3,3,0,no
3,0,0,0,0,0,2,1,4,1,3,2.5,1,no
3,0,0,0,0,0,1,1,3,0,3,3,1,no
3,0,0,0,0,0,2,1,4,1,3,2.5,0,no
23,1,4,2,2,6,3,2,26,3,25,9.666667,1,no
15,2,2,2,0,3,2,2,16,1,15,8.5,1,no
5,0,0,0,0,1,3,2,9,4,8,4.333333,1,no
4,2,0,0,0,1,2,2,5,1,4,3,1,no
5,0,0,0,0,1,2,1,6,1,5,3.5,1,no
0,5,0,0,1,0,1,1,0,0,0,0,1,no
0,2,0,0,1,0,1,1,0,0,0,0,0,no
0,0,0,0,1,0,1,1,0,0,0,0,0,no
0,2,0,0,1,0,1,1,0,0,0,0,0,no
0,3,0,0,1,0,1,1,0,0,0,0,0,no
0,3,0,0,1,0,1,1,0,0,0,0,0,no
3,1,0,0,0,0,1,1,3,0,3,3,0,no
3,2,0,0,0,0,1,1,3,0,3,3,0,no
5,3,0,0,0,0,1,1,5,0,5,5,0,no
3,0,0,0,0,0,1,1,3,0,3,3,0,no
3,0,0,0,0,0,1,1,3,0,3,3,0,no
3,0,0,0,0,0,1,1,3,0,3,3,0,no
0,0,0,0,1,0,1,1,0,0,0,0,0,no
0,0,0,0,1,0,1,1,0,0,0,0,0,no
30,3,6,4,1,5,1,1,30,0,30,30,0,no
11,2,1,1,0,2,1,1,11,0,11,11,0,no
0,0,0,0,0,0,1,1,0,0,0,0,0,no
0,3,0,0,1,0,1,1,0,0,0,0,0,no
0,0,0,0,0,0,1,1,0,0,0,0,0,no
52,2,12,3,1,6,2,2,83,31,83,57,0,no
0,0,0,0,0,0,1,1,0,0,0,0,0,no
0,0,0,0,0,0,1,1,0,0,0,0,0,no
0,0,0,0,0,0,1,1,0,0,0,0,0,no
0,0,0,0,0,0,1,1,0,0,0,0,0,no
0,0,0,0,0,0,1,1,0,0,0,0,0,no
0,0,0,0,0,0,1,1,0,0,0,0,0,no
0,0,0,0,0,0,1,1,0,0,0,0,0,no
0,1,0,0,0,0,1,1,0,0,0,0,0,no
0,2,0,0,0,0,1,1,0,0,0,0,0,no
0,1,0,0,0,0,1,1,0,0,0,0,0,no
0,0,0,0,0,0,1,1,0,0,0,0,0,no
0,1,0,0,0,0,1,1,0,0,0,0,0,no
12,1,2,2,1,2,1,1,12,0,12,12,0,no
3,0,0,0,0,0,1,1,3,0,3,3,0,no
16,3,2,1,1,2,1,1,16,0,16,16,0,no
3,1,1,0,0,0,1,1,3,0,3,3,0,no
3,1,1,0,0,0,1,1,3,0,3,3,0,no
3,0,0,0,0,0,1,1,3,0,3,3,0,no
3,0,0,0,0,0,1,1,3,0,3,3,0,no
5,4,2,0,0,1,1,1,5,0,5,5,0,no
3,0,0,0,0,0,1,1,3,0,3,3,0,no
3,1,0,0,0,0,1,1,3,0,3,3,0,no
30,6,3,1,2,5,1,1,30,0,30,30,0,no
18,3,2,1,1,2,1,1,18,0,18,18,0,no
3,0,0,0,1,0,1,1,3,0,3,3,0,no
14,3,1,1,2,0,2,2,14,0,9,7,0,no
8,6,0,0,0,0,1,1,8,0,8,8,0,no
17,5,2,1,0,1,1,1,17,0,17,17,0,no
8,0,1,1,0,0,2,2,9,1,8,5,0,no
48,2,5,1,3,3,1,1,48,0,48,48,0,no
43,6,6,2,2,6,1,1,43,0,43,43,0,no
10,1,1,1,0,2,1,1,10,0,10,10,0,no
3,0,0,0,0,0,1,1,3,0,3,3,0,no
28,2,3,1,3,3,1,1,28,0,28,28,0,no
18,3,2,2,0,2,1,1,18,0,18,18,0,no
26,3,3,3,1,4,1,1,26,0,26,26,0,no
17,3,3,3,1,1,1,1,17,0,17,17,0,no
21,3,3,1,3,1,1,1,21,0,21,21,0,no
12,3,2,2,0,1,1,1,12,0,12,12,0,no
11,3,2,1,0,0,1,1,11,0,11,11,0,no
33,3,5,2,2,5,1,1,33,0,33,33,0,no
8,3,1,1,1,0,1,1,8,0,8,8,0,no
3,0,0,0,0,0,1,1,3,0,3,3,0,no
43,4,5,1,3,3,1,1,43,0,43,43,0,no
7,3,1,1,1,0,1,1,7,0,7,7,0,no
13,3,2,1,0,0,1,1,13,0,13,13,0,no
14,0,1,1,0,1,1,1,14,0,14,14,0,no
13,0,2,1,0,0,1,1,13,0,13,13,0,no
13,0,2,2,0,2,1,1,13,0,13,13,0,no
8,3,1,1,0,0,1,1,8,0,8,8,0,no
8,0,2,2,0,0,1,1,8,0,8,8,0,no
6,2,0,0,1,0,1,1,6,0,6,6,0,no
3,0,0,0,0,0,1,1,3,0,3,3,0,no
3,0,0,0,0,0,1,1,3,0,3,3,0,no
15,2,1,1,1,1,5,3,18,3,9,4.2,0,no
44,0,11,4,4,4,2,1,45,1,44,23,0,no
15,0,4,2,1,1,2,1,16,1,15,8.5,0,no
16,0,3,1,0,0,3,2,17,1,13,6,0,no
16,0,3,1,0,0,3,2,17,1,13,6,0,no
8,1,1,1,0,1,1,1,8,0,8,8,0,no
26,0,5,3,0,3,4,1,28,2,25,7.5,0,no
53,3,10,4,3,9,4,1,55,2,43,14.25,0,no
7,2,0,0,0,4,1,1,7,0,7,7,0,no
3,2,0,0,0,0,1,1,3,0,3,3,0,no
3,1,0,0,0,0,2,1,4,1,3,2.5,0,no
15,0,3,2,1,0,2,2,16,1,15,8.5,0,no
31,1,8,5,4,6,2,1,31,0,19,15.5,0,no
41,2,9,5,3,5,4,1,44,3,42,11.75,0,no
22,1,4,2,0,1,2,2,23,1,22,12,0,no
15,0,2,1,0,1,1,1,15,0,15,15,0,no
16,1,4,2,1,1,2,1,17,1,16,9,0,no
7,0,1,1,0,1,1,1,7,0,7,7,0,no
2,1,0,0,0,0,3,1,7,2,5,3,0,no
5,1,1,1,0,0,3,1,7,2,5,3,0,no
5,1,1,1,0,0,3,1,7,2,5,3,0,no
4,2,0,0,0,0,1,1,4,0,4,4,0,no
3,0,0,0,0,0,1,1,3,0,3,3,0,no
3,0,0,0,0,0,1,1,3,0,3,3,0,no
3,1,0,0,0,0,1,1,3,0,3,3,0,no
21,1,6,3,0,2,2,1,21,0,17,10.5,0,no
3,0,0,0,0,0,1,1,3,0,3,3,0,no
4,1,0,0,0,0,1,1,4,0,4,4,0,no
3,0,0,0,0,0,1,1,3,0,3,3,0,no
2,0,0,0,0,0,1,1,2,0,2,2,0,no
8,1,1,1,0,1,1,1,8,0,8,8,0,no
3,1,0,0,0,0,1,1,3,0,3,3,0,no
3,1,0,0,0,0,1,1,3,0,3,3,0,no
3,0,0,0,0,0,1,1,3,0,3,3,0,no
3,0,0,0,0,0,1,1,3,0,3,3,0,no
2,2,0,0,0,0,1,1,2,0,2,2,0,no
3,0,0,0,0,0,1,1,3,0,3,3,0,no
5,3,0,0,0,0,1,1,5,0,5,5,0,no
13,3,1,1,0,1,1,1,13,0,13,13,0,no
2,0,0,0,0,0,1,1,2,0,2,2,0,no
3,0,0,0,0,0,1,1,3,0,3,3,0,no
6,1,1,1,0,0,1,1,6,0,6,6,0,no
13,1,1,1,0,6,1,1,13,0,13,13,0,no
8,0,1,1,0,1,1,1,8,0,8,8,0,no
5,2,0,0,1,0,1,1,5,0,5,5,0,no
23,3,6,2,0,2,1,1,23,0,23,23,0,no
2,0,0,0,0,0,1,1,2,0,2,2,0,no
3,1,0,0,0,0,1,1,3,0,3,3,0,no
8,3,0,0,0,0,1,1,8,0,8,8,0,no
8,4,0,0,0,0,1,1,8,0,8,8,0,no
3,0,0,0,0,0,1,1,3,0,3,3,0,no
3,2,0,0,0,0,1,1,3,0,3,3,0,no
3,3,0,0,0,0,1,1,3,0,3,3,0,no
3,7,0,0,0,0,1,1,3,0,3,3,0,no
39,6,10,3,1,3,1,1,39,0,39,39,0,no
9,8,0,0,0,1,1,1,9,0,9,9,0,no
21,3,4,2,0,1,1,1,21,0,21,21,0,no
13,5,1,1,0,1,1,1,13,0,13,13,0,no
11,2,2,1,0,1,1,1,11,0,11,11,0,no
13,4,1,1,0,1,1,1,13,0,13,13,0,no
12,4,3,1,0,2,1,1,12,0,12,12,0,no
3,0,0,0,0,0,1,1,4,0,4,4,0,no
3,0,0,0,0,0,1,1,4,0,4,4,0,no
8,0,1,1,0,1,1,1,4,0,4,4,0,no
8,0,1,1,0,1,1,1,4,0,4,4,0,no
4,0,0,0,0,1,1,1,4,0,4,4,0,no
3,1,0,0,0,0,1,1,3,0,3,3,0,no
3,1,0,0,0,0,1,1,3,0,3,3,0,no
21,1,6,3,0,2,1,1,21,0,21,21,0,no
7,1,1,1,2,1,1,1,7,0,7,7,0,no
3,0,0,0,0,0,1,1,3,0,3,3,0,no
4,0,0,0,0,0,1,1,4,0,4,4,0,no
3,0,0,0,0,0,1,1,3,0,3,3,0,no
4,2,0,0,0,0,1,1,4,0,4,4,0,no
4,2,0,0,0,0,1,1,4,0,4,4,0,no
4,3,0,0,0,0,1,1,4,0,4,4,0,no
3,1,0,0,0,0,1,1,3,0,3,3,0,no
3,2,0,0,0,0,1,1,3,0,3,3,0,no
21,3,9,1,0,0,1,1,21,0,21,21,0,no
3,0,0,0,0,0,1,1,3,0,3,3,0,no
3,1,0,0,0,0,1,1,3,0,3,3,0,no
3,2,0,0,0,0,1,1,3,0,3,3,0,no
4,2,0,0,1,0,1,1,4,0,4,4,0,no
3,1,0,0,0,0,1,1,3,0,3,3,0,no
3,0,0,0,0,0,1,1,3,0,3,3,0,no
3,0,0,0,0,0,1,1,3,0,3,3,0,no
3,1,0,0,0,0,1,1,3,0,3,3,0,no
3,2,0,0,0,0,1,1,3,0,3,3,0,no
3,1,0,0,0,0,1,1,3,0,3,3,0,no
3,2,0,0,0,0,1,1,3,0,3,3,0,no
3,1,0,0,0,0,1,1,3,0,3,3,0,no
3,2,0,0,0,0,1,1,3,0,3,3,0,no
3,1,0,0,0,0,1,1,3,0,3,3,0,no
3,2,0,0,0,0,1,1,3,0,3,3,0,no
3,1,0,0,0,0,1,1,3,0,3,3,0,no
3,2,0,0,0,0,1,1,3,0,3,3,0,no
3,1,0,0,0,0,1,1,3,0,3,3,0,no
3,2,0,0,0,0,1,1,3,0,3,3,0,no
3,1,0,0,0,0,1,1,3,0,3,3,0,no
3,2,0,0,0,0,1,1,3,0,3,3,0,no
0,0,0,0,1,0,1,1,0,0,0,0,0,no
0,1,0,0,1,0,1,1,0,0,0,0,0,no
0,1,0,0,1,0,1,1,0,0,0,0,0,no
0,0,0,0,1,0,1,1,0,0,0,0,0,no
0,0,0,0,1,0,1,1,0,0,0,0,0,no
0,2,0,0,1,0,1,1,0,0,0,0,0,no
0,3,0,0,1,0,1,1,0,0,0,0,0,no
0,3,0,0,1,0,1,1,0,0,0,0,0,no
0,0,0,0,1,0,1,1,0,0,0,0,0,no
0,1,0,0,1,0,1,1,0,0,0,0,0,no
3,3,0,0,0,0,1,1,3,0,3,3,0,no
2,0,0,0,0,0,1,1,2,0,2,2,0,no
3,0,0,0,0,0,1,1,3,0,3,3,0,no
3,1,0,0,0,0,1,1,3,0,3,3,0,no
3,1,0,0,0,0,1,1,3,0,3,3,0,no
3,2,0,0,0,0,1,1,3,0,3,3,0,no
3,1,0,0,0,0,1,1,3,0,3,3,0,no
7,1,1,1,2,0,1,1,7,0,7,7,0,no
0,7,0,0,1,0,1,1,0,0,0,0,0,no
0,8,0,0,1,0,1,1,0,0,0,0,0,no
0,0,0,0,1,0,1,1,0,0,0,0,0,no
0,3,0,0,1,0,1,1,0,0,0,0,0,no
0,4,0,0,1,0,1,1,0,0,0,0,0,no
0,0,0,0,1,0,1,1,0,0,0,0,0,no
0,2,0,0,1,0,1,1,0,0,0,0,0,no
0,3,0,0,1,0,1,1,0,0,0,0,0,no
0,5,0,0,1,0,1,1,0,0,0,0,0,no
0,4,0,0,1,0,1,1,0,0,0,0,0,no
4,2,0,0,0,0,1,1,4,0,4,4,0,no
3,0,0,0,0,0,1,1,3,0,3,3,0,no
3,0,0,0,0,0,1,1,3,0,3,3,0,no
3,1,0,0,0,0,1,1,3,0,3,3,0,no
3,1,0,0,0,0,1,1,3,0,3,3,0,no
30,2,4,2,4,9,1,1,30,0,30,30,0,no
3,1,0,0,0,0,1,1,3,0,3,3,0,no
10,3,2,1,0,0,1,1,10,0,10,10,0,no
6,0,1,1,0,0,1,1,6,0,6,6,0,no
5,3,0,0,0,0,1,1,5,0,5,5,0,no
7,0,1,1,0,0,1,1,7,0,7,7,0,no
3,0,0,0,0,0,1,1,3,0,3,3,0,no
3,1,0,0,0,0,1,1,3,0,3,3,0,no
4,0,0,0,0,0,1,1,4,0,4,4,0,no
17,1,4,2,0,4,1,1,17,0,17,17,0,no
3,1,0,0,0,0,1,1,3,0,3,3,0,no
3,0,0,0,0,0,1,1,3,0,3,3,0,no
3,0,0,0,0,0,1,1,3,0,3,3,0,no
8,0,1,1,0,3,1,1,8,0,8,8,0,no
10,1,2,2,0,1,1,1,10,0,10,10,0,no
11,1,2,1,0,3,1,1,11,0,11,11,0,no
4,2,0,0,0,0,1,1,4,0,4,4,0,no
19,0,3,2,0,4,1,1,19,0,19,19,0,no
5,0,1,1,0,1,1,1,5,0,5,5,0,no
5,1,1,1,0,1,1,1,5,0,5,5,0,no
7,1,1,1,0,2,1,1,7,0,7,7,0,no
3,0,0,0,0,0,1,1,3,0,3,3,0,no
3,1,0,0,0,0,1,1,3,0,3,3,0,no
3,2,0,0,0,0,1,1,3,0,3,3,0,no
8,6,1,0,0,0,1,1,8,0,8,8,0,no
3,0,0,0,0,0,1,1,3,0,3,3,0,no
3,0,0,0,0,0,1,1,3,0,3,3,0,no
3,0,0,0,0,0,1,1,3,0,3,3,0,no
3,0,0,0,0,0,1,1,3,0,3,3,0,no
3,0,0,0,0,0,1,1,3,0,3,3,0,no
3,0,0,0,0,0,1,1,3,0,3,3,0,no
2,0,0,0,1,0,1,1,2,0,2,2,0,no
8,1,0,0,0,0,1,1,8,0,8,8,0,no
12,1,3,1,0,2,1,1,12,0,12,12,0,no
3,0,0,0,0,0,1,1,3,0,3,3,0,no
11,0,3,2,0,3,1,1,11,0,11,11,0,no
25,1,6,3,0,1,2,2,25,0,21,12.5,0,no
7,3,0,0,0,0,2,2,7,0,5,3.5,0,no
22,8,2,1,0,1,3,2,22,0,13,7.333333,0,no
11,0,1,2,0,1,1,1,6,0,6,6,0,no
20,1,4,2,1,4,2,2,21,1,20,11,1,no
19,1,3,3,0,2,4,2,11,3,8,3.5,1,no
30,1,3,1,0,10,2,1,2,2,2,2,0,no
22,5,2,1,0,1,3,2,22,0,13,7.333333,1,no
22,6,2,1,0,1,3,2,22,0,13,7.333333,1,no
12,2,1,1,0,0,3,2,7,2,5,3,1,no
12,2,1,1,0,0,3,2,7,2,5,3,1,no
12,2,1,1,0,0,3,2,7,2,5,3,1,no
3,0,0,0,0,0,1,1,3,0,3,3,0,no
3,0,0,0,0,0,1,1,3,0,3,3,0,no
3,0,0,0,0,0,1,1,3,0,3,3,0,no
5,0,1,1,0,1,2,2,6,1,5,3.5,1,no
7,5,1,1,0,1,0,0,0,0,0,0,0,no
4,0,0,0,0,0,0,0,0,0,0,0,0,no
4,0,0,0,0,0,0,0,0,0,0,0,0,no
3,0,0,0,0,0,0,0,0,0,0,0,0,no
5,1,1,1,0,0,0,0,0,0,0,0,0,no
5,3,0,0,0,0,1,1,5,0,5,5,0,no
12,1,1,1,0,3,1,1,12,0,12,12,0,no
3,0,0,0,0,0,1,1,3,0,3,3,0,no
3,0,0,0,0,0,1,1,3,0,3,3,0,no
3,0,0,0,0,0,1,1,3,0,3,3,0,no
7,0,1,1,0,0,1,1,7,0,7,7,0,no
5,2,0,0,0,0,1,1,5,0,5,5,0,no
3,0,0,0,0,0,1,1,3,0,3,3,0,no
3,0,0,0,0,0,1,1,3,0,3,3,0,no
3,0,0,0,0,0,1,1,3,0,3,3,0,no
3,0,0,0,0,0,1,1,3,0,3,3,0,no
3,0,0,0,0,0,1,1,3,0,3,3,0,no
7,0,1,1,0,0,2,2,8,1,7,4.5,0,no
3,0,0,0,0,0,1,1,3,0,3,3,0,no
3,0,0,0,0,0,1,1,3,0,3,3,0,no
0,0,0,0,1,0,1,1,0,0,0,0,0,no
0,0,0,0,1,0,1,1,0,0,0,0,0,no
0,0,0,0,1,0,1,1,0,0,0,0,0,no
0,0,0,0,1,0,1,1,0,0,0,0,0,no
0,0,0,0,1,0,1,1,0,0,0,0,0,no
0,0,0,0,1,0,1,1,0,0,0,0,0,no
0,2,0,0,0,0,0,0,0,0,0,0,0,no
10,5,1,1,0,0,1,1,10,0,10,10,1,no
7,3,1,1,1,0,2,2,8,1,7,4.5,1,no
9,0,2,2,0,0,1,1,9,0,9,9,1,no
0,2,0,0,1,0,1,1,0,0,0,0,1,no
0,5,0,0,0,0,0,0,0,0,0,0,0,no
0,5,0,0,0,0,0,0,0,0,0,0,0,no
2,0,0,0,0,0,1,1,2,0,2,2,0,no
3,0,0,0,0,0,1,1,3,0,3,3,0,no
2,1,0,0,1,0,1,1,2,0,2,2,0,no
18,1,0,0,21,0,7,2,20,2,8,3.142857,0,no
3,1,0,0,0,0,1,1,3,0,3,3,0,no
2,1,0,0,1,0,1,1,2,0,2,2,0,no
13,0,2,2,1,3,1,1,13,0,13,13,0,no
10,0,1,1,1,2,1,1,10,0,10,10,0,no
3,0,0,0,0,0,1,1,3,0,3,3,0,no
3,0,0,0,0,0,1,1,3,0,3,3,0,no
3,0,0,0,2,0,1,1,3,0,3,3,0,no
12,0,2,1,2,1,1,1,12,0,12,12,0,no
3,0,0,0,1,0,1,1,3,0,3,3,0,no
3,0,0,0,0,0,1,1,3,0,3,3,0,no
3,0,0,0,1,0,1,1,3,0,3,3,0,no
7,0,1,1,2,1,1,1,7,0,7,7,0,no
3,0,0,0,0,0,1,1,3,0,3,3,0,no
3,1,0,0,1,0,1,1,3,0,3,3,0,no
3,0,0,0,0,0,1,1,3,0,3,3,0,no
4,1,0,0,2,1,1,1,4,0,4,4,0,no
8,1,1,1,1,1,1,1,8,0,8,8,0,no
8,2,1,1,1,1,1,1,8,0,8,8,0,no
3,1,0,0,1,0,1,1,3,0,3,3,0,no
3,2,0,0,1,0,1,1,3,0,3,3,0,no
3,1,0,0,1,0,1,1,3,0,3,3,0,no
3,2,0,0,1,0,1,1,3,0,3,3,0,no
3,1,0,0,1,0,1,1,3,0,3,3,0,no
3,2,0,0,1,0,1,1,3,0,3,3,0,no
3,1,0,0,1,0,1,1,3,0,3,3,0,no
3,2,0,0,1,0,1,1,3,0,3,3,0,no
3,0,0,0,0,0,1,1,3,0,3,3,0,no
3,0,0,0,2,0,1,1,3,0,3,3,0,no
7,1,1,1,1,0,1,1,7,0,7,7,0,no
3,0,0,0,0,0,1,1,3,0,3,3,0,no
4,1,0,0,0,0,1,1,4,0,4,4,0,no
7,0,1,1,2,1,1,1,7,0,7,7,0,no
7,0,1,1,2,1,1,1,7,0,7,7,0,no
12,0,1,1,6,3,1,1,12,0,12,12,0,no
6,0,0,0,1,0,1,1,6,0,6,6,0,no
6,0,0,0,1,0,1,1,6,0,6,6,0,no
3,0,0,0,1,0,1,1,3,0,3,3,0,no
3,0,0,0,0,0,1,1,3,0,3,3,0,no
10,0,1,1,1,2,1,1,10,0,10,10,0,no
3,0,0,0,2,0,1,1,3,0,3,3,0,no
3,0,0,0,2,0,1,1,3,0,3,3,0,no
3,0,0,0,1,0,1,1,3,0,3,3,0,no
3,0,0,0,1,0,1,1,3,0,3,3,0,no
3,0,0,0,1,0,1,1,3,0,3,3,0,no
3,0,0,0,1,0,1,1,3,0,3,3,0,no
4,0,1,1,1,0,1,1,4,0,4,4,0,no
27,2,5,3,1,2,1,1,27,0,27,27,0,no
8,1,1,1,2,0,1,1,8,0,8,8,0,no
9,1,2,1,3,0,1,1,9,0,9,9,0,no
9,1,1,1,0,0,1,1,9,0,9,9,0,no
5,1,0,0,0,0,1,1,5,0,5,5,0,no
0,0,0,0,0,0,1,1,0,0,0,0,0,no
0,0,0,0,0,0,1,1,0,0,0,0,0,no
3,1,0,0,0,0,1,1,3,0,3,3,0,no
2,1,0,0,1,0,1,1,2,0,2,2,0,no
13,0,2,2,1,3,1,1,13,0,13,13,0,no
10,0,1,1,1,2,1,1,10,0,10,10,0,no
3,0,0,0,0,0,1,1,3,0,3,3,0,no
3,0,0,0,0,0,1,1,3,0,3,3,0,no
3,0,0,0,2,0,1,1,3,0,3,3,0,no
13,0,2,2,1,3,1,1,13,0,13,13,0,no
10,0,1,1,1,2,1,1,10,0,10,10,0,no
13,0,2,2,1,3,1,1,13,0,13,13,0,no
10,0,1,1,1,2,1,1,10,0,10,10,0,no
13,0,2,2,1,3,1,1,13,0,13,13,0,no
10,0,1,1,1,2,1,1,10,0,10,10,0,no
21,0,5,1,5,1,1,1,21,0,21,21,0,no
3,0,0,0,1,0,1,1,3,0,3,3,0,no
3,0,0,0,1,0,1,1,3,0,3,3,0,no
3,0,0,0,1,0,1,1,3,0,3,3,0,no
3,0,0,0,1,0,1,1,3,0,3,3,0,no
6,0,0,0,0,0,1,1,6,0,6,6,0,no
3,0,0,0,1,0,1,1,3,0,3,3,0,no
19,0,4,1,2,1,1,1,19,0,19,19,0,no
3,0,0,0,0,0,1,1,3,0,3,3,0,no
3,1,0,0,1,0,1,1,3,0,3,3,0,no
3,0,0,0,0,0,1,1,3,0,3,3,0,no
4,1,0,0,2,1,1,1,4,0,4,4,0,no
8,1,1,1,1,1,1,1,8,0,8,8,0,no
8,2,1,1,1,1,1,1,8,0,8,8,0,no
3,1,0,0,1,0,1,1,3,0,3,3,0,no
3,2,0,0,1,0,1,1,3,0,3,3,0,no
3,1,0,0,1,0,1,1,3,0,3,3,0,no
3,2,0,0,1,0,1,1,3,0,3,3,0,no
3,1,0,0,1,0,1,1,3,0,3,3,0,no
3,2,0,0,1,0,1,1,3,0,3,3,0,no
3,1,0,0,1,0,1,1,3,0,3,3,0,no
3,2,0,0,1,0,1,1,3,0,3,3,0,no
3,0,0,0,0,0,1,1,3,0,3,3,0,no
3,0,0,0,2,0,1,1,3,0,3,3,0,no
16,1,4,1,4,0,1,1,16,0,16,16,0,no
3,0,0,0,0,0,1,1,3,0,3,3,0,no
4,1,0,0,0,0,1,1,4,0,4,4,0,no
7,0,1,1,2,1,1,1,7,0,7,7,0,no
7,0,1,1,2,1,1,1,7,0,7,7,0,no
24,0,4,1,9,3,1,1,24,0,24,24,0,no
12,0,0,0,4,0,1,1,12,0,12,12,0,no
6,0,0,0,1,0,1,1,6,0,6,6,0,no
6,0,0,0,1,0,1,1,6,0,6,6,0,no
6,0,0,0,1,0,1,1,6,0,6,6,0,no
6,0,0,0,1,0,1,1,6,0,6,6,0,no
3,0,0,0,1,0,1,1,3,0,3,3,0,no
3,0,0,0,0,0,1,1,3,0,3,3,0,no
10,0,1,1,1,2,1,1,10,0,10,10,0,no
3,0,0,0,2,0,1,1,3,0,3,3,0,no
3,0,0,0,2,0,1,1,3,0,3,3,0,no
3,0,0,0,1,0,1,1,3,0,3,3,0,no
10,0,1,1,1,2,1,1,10,0,10,10,0,no
10,0,1,1,1,2,1,1,10,0,10,10,0,no
10,0,1,1,1,2,1,1,10,0,10,10,0,no
3,0,0,0,1,0,1,1,3,0,3,3,0,no
3,0,0,0,1,0,1,1,3,0,3,3,0,no
3,0,0,0,1,0,1,1,3,0,3,3,0,no
3,0,0,0,1,0,1,1,3,0,3,3,0,no
3,0,0,0,1,0,1,1,3,0,3,3,0,no
12,0,3,1,2,0,1,1,12,0,12,12,0,no
4,0,1,1,1,0,1,1,4,0,4,4,0,no
45,2,8,3,1,2,1,1,45,0,45,45,0,no
8,1,1,1,2,0,1,1,8,0,8,8,0,no
18,1,5,1,3,0,1,1,18,0,18,18,0,no
9,1,1,1,0,0,1,1,9,0,9,9,0,no
5,1,0,0,0,0,1,1,5,0,5,5,0,no
9,1,1,1,0,0,1,1,9,0,9,9,0,no
5,1,0,0,0,0,1,1,5,0,5,5,0,no
9,1,1,1,0,0,1,1,9,0,9,9,0,no
5,1,0,0,0,0,1,1,5,0,5,5,0,no
9,1,1,1,0,0,1,1,9,0,9,9,0,no
5,1,0,0,0,0,1,1,5,0,5,5,0,no
0,0,0,0,0,0,1,1,0,0,0,0,0,no
0,0,0,0,0,0,1,1,0,0,0,0,0,no
0,0,0,0,0,0,1,1,0,0,0,0,0,no
0,0,0,0,0,0,1,1,0,0,0,0,0,no
0,0,0,0,0,0,1,1,0,0,0,0,0,no
0,0,0,0,0,0,1,1,0,0,0,0,0,no
0,0,0,0,0,0,1,1,0,0,0,0,0,no
0,0,0,0,0,0,1,1,0,0,0,0,0,no
3,1,0,0,0,0,1,1,3,0,3,3,0,no
2,1,0,0,1,0,1,1,2,0,2,2,0,no
3,0,0,0,0,0,1,1,3,0,3,3,0,no
3,0,0,0,0,0,1,1,3,0,3,3,0,no
3,0,0,0,0,0,1,1,3,0,3,3,0,no
3,0,0,0,2,0,1,1,3,0,3,3,0,no
3,0,0,0,1,0,1,1,3,0,3,3,0,no
3,0,0,0,0,0,1,1,3,0,3,3,0,no
3,0,0,0,0,0,1,1,3,0,3,3,0,no
3,0,0,0,0,0,1,1,3,0,3,3,0,no
3,0,0,0,0,0,1,1,3,0,3,3,0,no
3,0,0,0,0,0,1,1,3,0,3,3,0,no
3,1,0,0,1,0,1,1,3,0,3,3,0,no
3,0,0,0,0,0,1,1,3,0,3,3,0,no
3,0,0,0,1,0,1,1,3,0,3,3,0,no
3,1,0,0,1,0,1,1,3,0,3,3,0,no
3,0,0,0,1,0,1,1,3,0,3,3,0,no
36,0,10,1,9,2,3,2,36,0,27,12,0,no
3,0,0,0,1,0,1,1,3,0,3,3,0,no
3,0,0,0,1,0,1,1,3,0,3,3,0,no
3,0,0,0,1,0,1,1,3,0,3,3,0,no
3,0,0,0,1,0,1,1,3,0,3,3,0,no
3,0,0,0,1,0,1,1,3,0,3,3,0,no
3,0,0,0,1,0,1,1,3,0,3,3,0,no
3,0,0,0,1,0,1,1,3,0,3,3,0,no
3,0,0,0,1,0,1,1,3,0,3,3,0,no
3,0,0,0,1,0,1,1,3,0,3,3,0,no
11,0,0,0,2,0,3,2,11,0,8,3.666667,0,no
3,0,0,0,1,0,1,1,3,0,3,3,0,no
29,0,7,2,2,2,1,1,29,0,29,29,0,no
3,0,0,0,0,0,1,1,3,0,3,3,0,no
3,1,0,0,1,0,1,1,3,0,3,3,0,no
3,0,0,0,0,0,1,1,3,0,3,3,0,no
4,1,0,0,2,1,1,1,4,0,4,4,0,no
8,1,1,1,1,1,1,1,8,0,8,8,0,no
8,2,1,1,1,1,1,1,8,0,8,8,0,no
3,1,0,0,1,0,1,1,3,0,3,3,0,no
3,2,0,0,1,0,1,1,3,0,3,3,0,no
3,1,0,0,1,0,1,1,3,0,3,3,0,no
3,2,0,0,1,0,1,1,3,0,3,3,0,no
3,1,0,0,1,0,1,1,3,0,3,3,0,no
3,2,0,0,1,0,1,1,3,0,3,3,0,no
3,1,0,0,1,0,1,1,3,0,3,3,0,no
3,2,0,0,1,0,1,1,3,0,3,3,0,no
3,0,0,0,0,0,1,1,3,0,3,3,0,no
3,0,0,0,2,0,1,1,3,0,3,3,0,no
31,1,9,1,8,1,3,2,31,0,22,10.333333,0,no
3,0,0,0,0,0,1,1,3,0,3,3,0,no
4,1,0,0,0,0,1,1,4,0,4,4,0,no
10,1,1,1,2,0,1,1,10,0,10,10,0,no
13,2,2,2,1,0,1,1,13,0,13,13,0,no
10,2,1,1,1,0,1,1,10,0,10,10,0,no
13,1,2,2,1,0,1,1,13,0,13,13,0,no
10,1,1,1,1,0,1,1,10,0,10,10,0,no
3,0,0,0,2,0,1,1,3,0,3,3,0,no
3,1,0,0,2,0,1,1,3,0,3,3,0,no
7,0,1,1,2,1,1,1,7,0,7,7,0,no
7,0,1,1,2,1,1,1,7,0,7,7,0,no
49,0,10,2,15,3,3,2,49,0,37,16.333333,0,no
26,0,1,1,11,0,3,2,26,0,20,8.666667,0,no
6,0,0,0,1,0,1,1,6,0,6,6,0,no
6,0,0,0,2,0,1,1,6,0,6,6,0,no
6,0,0,0,1,0,1,1,6,0,6,6,0,no
6,0,0,0,1,0,1,1,6,0,6,6,0,no
6,0,0,0,1,0,1,1,6,0,6,6,0,no
6,0,0,0,1,0,1,1,6,0,6,6,0,no
6,0,0,0,1,0,1,1,6,0,6,6,0,no
10,0,1,1,1,0,1,1,10,0,10,10,0,no
6,0,0,0,2,0,1,1,6,0,6,6,0,no
3,0,0,0,1,0,1,1,3,0,3,3,0,no
3,0,0,0,0,0,1,1,3,0,3,3,0,no
6,0,1,1,2,0,1,1,6,0,6,6,0,no
3,0,0,0,0,0,1,1,3,0,3,3,0,no
3,0,0,0,2,0,1,1,3,0,3,3,0,no
3,0,0,0,2,0,1,1,3,0,3,3,0,no
3,0,0,0,1,0,1,1,3,0,3,3,0,no
3,0,0,0,1,0,1,1,3,0,3,3,0,no
3,0,0,0,0,0,1,1,3,0,3,3,0,no
3,0,0,0,0,0,1,1,3,0,3,3,0,no
3,0,0,0,0,0,1,1,3,0,3,3,0,no
3,0,0,0,0,0,1,1,3,0,3,3,0,no
3,0,0,0,0,0,1,1,3,0,3,3,0,no
7,1,1,1,1,0,1,1,7,0,7,7,0,no
3,1,0,0,1,0,1,1,3,0,3,3,0,no
3,0,0,0,1,0,1,1,3,0,3,3,0,no
7,0,1,1,0,0,1,1,7,0,7,7,0,no
7,0,1,1,7,0,1,1,7,0,7,7,0,no
7,0,1,1,1,0,1,1,7,0,7,7,0,no
7,1,1,1,1,0,1,1,7,0,7,7,0,no
7,0,1,1,1,0,1,1,7,0,7,7,0,no
3,0,0,0,1,0,1,1,3,0,3,3,0,no
3,0,0,0,1,0,1,1,3,0,3,3,0,no
3,0,0,0,1,0,1,1,3,0,3,3,0,no
3,0,0,0,1,0,1,1,3,0,3,3,0,no
3,0,0,0,1,0,1,1,3,0,3,3,0,no
3,0,0,0,1,0,1,1,3,0,3,3,0,no
3,0,0,0,1,0,1,1,3,0,3,3,0,no
3,0,0,0,1,0,1,1,3,0,3,3,0,no
3,0,0,0,1,0,1,1,3,0,3,3,0,no
3,0,0,0,1,0,1,1,3,0,3,3,0,no
20,0,6,2,1,1,1,1,20,0,20,20,0,no
5,0,1,1,0,0,1,1,5,0,5,5,0,no
88,2,15,3,7,7,3,2,88,0,64,29.333333,0,no
8,1,1,1,2,0,1,1,8,0,8,8,0,no
54,1,15,3,5,0,3,2,54,0,45,18,0,no
10,1,1,1,0,0,1,1,10,0,10,10,0,no
6,1,0,0,0,0,1,1,6,0,6,6,0,no
9,1,1,1,1,0,1,1,9,0,9,9,0,no
6,1,0,0,0,0,1,1,6,0,6,6,0,no
6,1,0,0,0,0,1,1,6,0,6,6,0,no
6,1,0,0,0,0,1,1,6,0,6,6,0,no
9,1,1,1,0,0,1,1,9,0,9,9,0,no
6,1,0,0,0,0,1,1,6,0,6,6,0,no
13,2,2,2,1,0,1,1,13,0,13,13,0,no
10,2,1,1,1,0,1,1,10,0,10,10,0,no
9,1,1,1,1,0,1,1,9,0,9,9,0,no
4,2,0,0,1,0,1,1,4,0,4,4,0,no
3,0,0,0,1,0,1,1,3,0,3,3,0,no
3,0,0,0,0,0,1,1,3,0,3,3,0,no
3,0,0,0,0,0,1,1,3,0,3,3,0,no
3,0,0,0,0,0,1,1,3,0,3,3,0,no
3,0,0,0,0,0,1,1,3,0,3,3,0,no
6,1,1,1,1,0,1,1,6,0,6,6,0,no
10,1,3,1,0,0,1,1,10,0,10,10,0,no
3,1,0,0,0,0,1,1,3,0,3,3,0,no
3,1,0,0,0,0,1,1,3,0,3,3,0,no
2,1,0,0,1,0,1,1,2,0,2,2,0,no
3,0,0,0,0,0,1,1,3,0,3,3,0,no
3,0,0,0,0,0,1,1,3,0,3,3,0,no
3,0,0,0,2,0,1,1,3,0,3,3,0,no
3,1,0,0,0,0,1,1,3,0,3,3,0,no
3,0,0,0,0,0,1,1,3,0,3,3,0,no
3,0,0,0,0,0,1,1,3,0,3,3,0,no
3,0,0,0,0,0,1,1,3,0,3,3,0,no
20,0,3,1,2,3,1,1,20,0,20,20,0,no
3,0,0,0,1,0,1,1,3,0,3,3,0,no
4,0,0,0,0,0,1,1,4,0,4,4,0,no
3,0,0,0,1,0,1,1,3,0,3,3,0,no
11,0,2,1,2,1,1,1,11,0,11,11,0,no
3,0,0,0,0,0,1,1,3,0,3,3,0,no
3,1,0,0,1,0,1,1,3,0,3,3,0,no
3,0,0,0,0,0,1,1,3,0,3,3,0,no
4,1,0,0,2,1,1,1,4,0,4,4,0,no
8,1,1,1,1,1,1,1,8,0,8,8,0,no
8,2,1,1,1,1,1,1,8,0,8,8,0,no
3,1,0,0,1,0,1,1,3,0,3,3,0,no
3,2,0,0,1,0,1,1,3,0,3,3,0,no
3,1,0,0,1,0,1,1,3,0,3,3,0,no
3,2,0,0,1,0,1,1,3,0,3,3,0,no
3,1,0,0,1,0,1,1,3,0,3,3,0,no
3,2,0,0,1,0,1,1,3,0,3,3,0,no
3,1,0,0,1,0,1,1,3,0,3,3,0,no
3,2,0,0,1,0,1,1,3,0,3,3,0,no
3,0,0,0,0,0,1,1,3,0,3,3,0,no
3,0,0,0,2,0,1,1,3,0,3,3,0,no
10,1,2,1,1,1,1,1,10,0,10,10,0,no
3,0,0,0,0,0,1,1,3,0,3,3,0,no
4,1,0,0,0,0,1,1,4,0,4,4,0,no
6,1,0,0,1,0,1,1,6,0,6,6,0,no
9,1,1,1,0,0,1,1,9,0,9,9,0,no
5,1,0,0,0,0,1,1,5,0,5,5,0,no
7,0,1,1,2,1,1,1,7,0,7,7,0,no
7,0,1,1,2,1,1,1,7,0,7,7,0,no
17,0,2,1,8,3,1,1,17,0,17,17,0,no
8,0,0,0,2,0,1,1,8,0,8,8,0,no
6,0,0,0,1,0,1,1,6,0,6,6,0,no
6,0,0,0,1,0,1,1,6,0,6,6,0,no
3,0,0,0,1,0,1,1,3,0,3,3,0,no
3,0,0,0,0,0,1,1,3,0,3,3,0,no
6,0,1,1,1,0,1,1,6,0,6,6,0,no
3,0,0,0,2,0,1,1,3,0,3,3,0,no
3,0,0,0,2,0,1,1,3,0,3,3,0,no
3,0,0,0,1,0,1,1,3,0,3,3,0,no
3,1,0,0,0,0,1,1,3,0,3,3,0,no
3,0,0,0,0,0,1,1,3,0,3,3,0,no
3,0,0,0,0,0,1,1,3,0,3,3,0,no
3,0,0,0,0,0,1,1,3,0,3,3,0,no
3,0,0,0,1,0,1,1,3,0,3,3,0,no
3,0,0,0,1,0,1,1,3,0,3,3,0,no
6,0,1,1,2,0,1,1,6,0,6,6,0,no
4,0,1,1,1,0,1,1,4,0,4,4,0,no
33,2,6,3,1,2,1,1,33,0,33,33,0,no
8,1,1,1,2,0,1,1,8,0,8,8,0,no
19,1,4,2,4,0,1,1,19,0,19,19,0,no
9,2,1,1,0,0,1,1,9,0,9,9,0,no
6,1,0,0,0,0,1,1,6,0,6,6,0,no
0,1,0,0,0,0,1,1,0,0,0,0,0,no
0,0,0,0,0,0,1,1,0,0,0,0,0,no
0,0,0,0,0,0,1,1,0,0,0,0,0,no
0,0,0,0,0,0,1,1,0,0,0,0,0,no
0,0,0,0,0,0,1,1,0,0,0,0,0,no
4,2,0,0,1,0,1,1,4,0,4,4,0,no
3,0,0,0,1,0,1,1,3,0,3,3,0,no
3,0,0,0,0,0,1,1,3,0,3,3,0,no
3,0,0,0,0,0,1,1,3,0,3,3,0,no
3,0,0,0,0,0,1,1,3,0,3,3,0,no
3,0,0,0,0,0,1,1,3,0,3,3,0,no
6,1,1,1,1,0,1,1,6,0,6,6,0,no
12,1,4,1,0,0,1,1,12,0,12,12,0,no
3,1,0,0,0,0,1,1,3,0,3,3,0,no
0,0,0,0,0,0,1,1,0,0,0,0,0,no
0,0,0,0,1,0,1,1,0,0,0,0,0,no
0,0,0,0,0,0,1,1,0,0,0,0,0,no
0,0,0,0,0,0,1,1,0,0,0,0,0,no
0,0,0,0,0,0,1,1,0,0,0,0,0,no
0,0,0,0,0,0,1,1,0,0,0,0,0,no
0,0,0,0,0,0,1,1,0,0,0,0,0,no
0,1,0,0,1,0,1,1,0,0,0,0,0,no
0,0,0,0,0,0,1,1,0,0,0,0,0,no
0,0,0,0,1,0,1,1,0,0,0,0,0,no
0,1,0,0,1,0,1,1,0,0,0,0,0,no
0,0,0,0,1,0,1,1,0,0,0,0,0,no
0,0,0,0,1,0,1,1,0,0,0,0,0,no
0,0,0,0,0,0,1,1,0,0,0,0,0,no
0,0,0,0,0,0,1,1,0,0,0,0,0,no
0,0,0,0,0,0,1,1,0,0,0,0,0,no
0,0,0,0,0,0,1,1,0,0,0,0,0,no
0,0,0,0,0,0,1,1,0,0,0,0,0,no
0,0,0,0,0,0,1,1,0,0,0,0,0,no
0,0,0,0,0,0,1,1,0,0,0,0,0,no
0,0,0,0,0,0,1,1,0,0,0,0,0,no
3,1,0,0,0,0,1,1,3,0,3,3,0,no
2,1,0,0,1,0,1,1,2,0,2,2,0,no
3,0,0,0,0,0,1,1,3,0,3,3,0,no
3,0,0,0,0,0,1,1,3,0,3,3,0,no
3,0,0,0,2,0,1,1,3,0,3,3,0,no
15,0,3,1,3,1,1,1,15,0,15,15,0,no
13,0,2,2,1,3,1,1,13,0,13,13,0,no
10,0,1,1,1,2,1,1,10,0,10,10,0,no
3,0,0,0,0,0,1,1,3,0,3,3,0,no
3,0,0,0,1,0,1,1,3,0,3,3,0,no
3,0,0,0,1,0,1,1,3,0,3,3,0,no
4,0,0,0,0,0,1,1,4,0,4,4,0,no
3,0,0,0,1,0,1,1,3,0,3,3,0,no
15,0,3,1,2,1,1,1,15,0,15,15,0,no
3,0,0,0,0,0,1,1,3,0,3,3,0,no
3,1,0,0,1,0,1,1,3,0,3,3,0,no
3,0,0,0,0,0,1,1,3,0,3,3,0,no
4,1,0,0,2,1,1,1,4,0,4,4,0,no
8,1,1,1,1,1,1,1,8,0,8,8,0,no
8,2,1,1,1,1,1,1,8,0,8,8,0,no
3,1,0,0,1,0,1,1,3,0,3,3,0,no
3,2,0,0,1,0,1,1,3,0,3,3,0,no
3,1,0,0,1,0,1,1,3,0,3,3,0,no
3,2,0,0,1,0,1,1,3,0,3,3,0,no
3,1,0,0,1,0,1,1,3,0,3,3,0,no
3,2,0,0,1,0,1,1,3,0,3,3,0,no
3,1,0,0,1,0,1,1,3,0,3,3,0,no
3,2,0,0,1,0,1,1,3,0,3,3,0,no
3,0,0,0,0,0,1,1,3,0,3,3,0,no
3,0,0,0,2,0,1,1,3,0,3,3,0,no
10,1,2,1,2,0,1,1,10,0,10,10,0,no
3,0,0,0,0,0,1,1,3,0,3,3,0,no
4,1,0,0,0,0,1,1,4,0,4,4,0,no
7,0,1,1,2,1,1,1,7,0,7,7,0,no
7,0,1,1,2,1,1,1,7,0,7,7,0,no
16,0,2,1,7,3,1,1,16,0,16,16,0,no
8,0,0,0,2,0,1,1,8,0,8,8,0,no
6,0,0,0,1,0,1,1,6,0,6,6,0,no
6,0,0,0,1,0,1,1,6,0,6,6,0,no
3,0,0,0,1,0,1,1,3,0,3,3,0,no
3,0,0,0,0,0,1,1,3,0,3,3,0,no
3,0,0,0,2,0,1,1,3,0,3,3,0,no
3,0,0,0,2,0,1,1,3,0,3,3,0,no
3,0,0,0,1,0,1,1,3,0,3,3,0,no
10,0,1,1,1,2,1,1,10,0,10,10,0,no
3,0,0,0,0,0,1,1,3,0,3,3,0,no
3,0,0,0,1,0,1,1,3,0,3,3,0,no
3,0,0,0,1,0,1,1,3,0,3,3,0,no
3,0,0,0,1,0,1,1,3,0,3,3,0,no
9,0,2,1,2,0,1,1,9,0,9,9,0,no
4,0,1,1,1,0,1,1,4,0,4,4,0,no
33,2,6,3,1,2,1,1,33,0,33,33,0,no
8,1,1,1,2,0,1,1,8,0,8,8,0,no
12,1,3,1,3,0,1,1,12,0,12,12,0,no
9,1,1,1,0,0,1,1,9,0,9,9,0,no
5,1,0,0,0,0,1,1,5,0,5,5,0,no
6,1,0,0,0,0,1,1,6,0,6,6,0,no
0,0,0,0,0,0,1,1,0,0,0,0,0,no
0,0,0,0,0,0,1,1,0,0,0,0,0,no
0,0,0,0,0,0,1,1,0,0,0,0,0,no
0,0,0,0,0,0,1,1,0,0,0,0,0,no
3,1,0,0,0,0,1,1,3,0,3,3,0,no
2,1,0,0,1,0,1,1,2,0,2,2,0,no
13,0,2,2,1,3,1,1,13,0,13,13,0,no
10,0,1,1,1,2,1,1,10,0,10,10,0,no
3,0,0,0,0,0,1,1,3,0,3,3,0,no
3,0,0,0,0,0,1,1,3,0,3,3,0,no
3,0,0,0,2,0,1,1,3,0,3,3,0,no
12,0,2,1,2,1,1,1,12,0,12,12,0,no
3,0,0,0,1,0,1,1,3,0,3,3,0,no
3,0,0,0,0,0,1,1,3,0,3,3,0,no
3,0,0,0,1,0,1,1,3,0,3,3,0,no
7,0,1,1,2,1,1,1,7,0,7,7,0,no
3,0,0,0,0,0,1,1,3,0,3,3,0,no
3,1,0,0,1,0,1,1,3,0,3,3,0,no
3,0,0,0,0,0,1,1,3,0,3,3,0,no
4,1,0,0,2,1,1,1,4,0,4,4,0,no
8,1,1,1,1,1,1,1,8,0,8,8,0,no
8,2,1,1,1,1,1,1,8,0,8,8,0,no
3,1,0,0,1,0,1,1,3,0,3,3,0,no
3,2,0,0,1,0,1,1,3,0,3,3,0,no
3,1,0,0,1,0,1,1,3,0,3,3,0,no
3,2,0,0,1,0,1,1,3,0,3,3,0,no
3,1,0,0,1,0,1,1,3,0,3,3,0,no
3,2,0,0,1,0,1,1,3,0,3,3,0,no
3,1,0,0,1,0,1,1,3,0,3,3,0,no
3,2,0,0,1,0,1,1,3,0,3,3,0,no
3,0,0,0,0,0,1,1,3,0,3,3,0,no
3,0,0,0,2,0,1,1,3,0,3,3,0,no
7,1,1,1,1,0,1,1,7,0,7,7,0,no
3,0,0,0,0,0,1,1,3,0,3,3,0,no
4,1,0,0,0,0,1,1,4,0,4,4,0,no
7,0,1,1,2,1,1,1,7,0,7,7,0,no
7,0,1,1,2,1,1,1,7,0,7,7,0,no
12,0,1,1,6,3,1,1,12,0,12,12,0,no
6,0,0,0,1,0,1,1,6,0,6,6,0,no
6,0,0,0,1,0,1,1,6,0,6,6,0,no
3,0,0,0,1,0,1,1,3,0,3,3,0,no
3,0,0,0,0,0,1,1,3,0,3,3,0,no
10,0,1,1,1,2,1,1,10,0,10,10,0,no
3,0,0,0,2,0,1,1,3,0,3,3,0,no
3,0,0,0,2,0,1,1,3,0,3,3,0,no
3,0,0,0,1,0,1,1,3,0,3,3,0,no
3,0,0,0,1,0,1,1,3,0,3,3,0,no
3,0,0,0,1,0,1,1,3,0,3,3,0,no
3,0,0,0,1,0,1,1,3,0,3,3,0,no
4,0,1,1,1,0,1,1,4,0,4,4,0,no
27,2,5,3,1,2,1,1,27,0,27,27,0,no
8,1,1,1,2,0,1,1,8,0,8,8,0,no
9,1,2,1,3,0,1,1,9,0,9,9,0,no
9,1,1,1,0,0,1,1,9,0,9,9,0,no
5,1,0,0,0,0,1,1,5,0,5,5,0,no
0,0,0,0,0,0,1,1,0,0,0,0,0,no
0,0,0,0,0,0,1,1,0,0,0,0,0,no
3,1,0,0,0,0,1,1,3,0,3,3,0,no
2,1,0,0,1,0,1,1,2,0,2,2,0,no
3,0,0,0,0,0,1,1,3,0,3,3,0,no
3,0,0,0,0,0,1,1,3,0,3,3,0,no
3,0,0,0,2,0,1,1,3,0,3,3,0,no
3,1,0,0,0,0,1,1,3,0,3,3,0,no
3,0,0,0,0,0,1,1,3,0,3,3,0,no
3,0,0,0,0,0,1,1,3,0,3,3,0,no
17,0,2,1,1,3,1,1,17,0,17,17,0,no
3,0,0,0,0,0,1,1,3,0,3,3,0,no
3,0,0,0,1,0,1,1,3,0,3,3,0,no
7,0,1,1,2,1,1,1,7,0,7,7,0,no
3,0,0,0,0,0,1,1,3,0,3,3,0,no
3,1,0,0,1,0,1,1,3,0,3,3,0,no
3,0,0,0,0,0,1,1,3,0,3,3,0,no
4,1,0,0,2,1,1,1,4,0,4,4,0,no
8,1,1,1,1,1,1,1,8,0,8,8,0,no
8,2,1,1,1,1,1,1,8,0,8,8,0,no
3,1,0,0,1,0,1,1,3,0,3,3,0,no
3,2,0,0,1,0,1,1,3,0,3,3,0,no
3,1,0,0,1,0,1,1,3,0,3,3,0,no
3,2,0,0,1,0,1,1,3,0,3,3,0,no
3,1,0,0,1,0,1,1,3,0,3,3,0,no
3,2,0,0,1,0,1,1,3,0,3,3,0,no
3,1,0,0,1,0,1,1,3,0,3,3,0,no
3,2,0,0,1,0,1,1,3,0,3,3,0,no
3,0,0,0,0,0,1,1,3,0,3,3,0,no
3,0,0,0,2,0,1,1,3,0,3,3,0,no
7,1,1,1,0,1,1,1,7,0,7,7,0,no
3,0,0,0,0,0,1,1,3,0,3,3,0,no
4,1,0,0,0,0,1,1,4,0,4,4,0,no
6,1,0,0,1,0,1,1,6,0,6,6,0,no
9,1,1,1,0,0,1,1,9,0,9,9,0,no
5,1,0,0,0,0,1,1,5,0,5,5,0,no
7,0,1,1,2,1,1,1,7,0,7,7,0,no
7,0,1,1,2,1,1,1,7,0,7,7,0,no
11,0,1,1,7,2,1,1,11,0,11,11,0,no
6,0,0,0,1,0,1,1,6,0,6,6,0,no
6,0,0,0,1,0,1,1,6,0,6,6,0,no
3,0,0,0,1,0,1,1,3,0,3,3,0,no
3,0,0,0,0,0,1,1,3,0,3,3,0,no
6,0,1,1,1,0,1,1,6,0,6,6,0,no
3,0,0,0,2,0,1,1,3,0,3,3,0,no
3,0,0,0,2,0,1,1,3,0,3,3,0,no
3,0,0,0,1,0,1,1,3,0,3,3,0,no
3,1,0,0,0,0,1,1,3,0,3,3,0,no
3,0,0,0,0,0,1,1,3,0,3,3,0,no
3,0,0,0,0,0,1,1,3,0,3,3,0,no
3,0,0,0,1,0,1,1,3,0,3,3,0,no
3,0,0,0,1,0,1,1,3,0,3,3,0,no
4,0,1,1,1,0,1,1,4,0,4,4,0,no
27,2,5,3,1,2,1,1,27,0,27,27,0,no
8,1,1,1,2,0,1,1,8,0,8,8,0,no
16,1,3,2,4,0,1,1,16,0,16,16,0,no
9,2,1,1,0,0,1,1,9,0,9,9,0,no
0,1,0,0,0,0,1,1,0,0,0,0,0,no
0,0,0,0,0,0,1,1,0,0,0,0,0,no
0,0,0,0,0,0,1,1,0,0,0,0,0,no
10,2,0,0,0,0,3,1,12,2,11,4.666667,0,no
5,1,0,0,0,0,0,0,0,0,0,0,0,no
13,0,2,2,1,2,0,0,0,0,0,0,0,no
3,0,0,0,0,0,0,0,0,0,0,0,0,no
3,0,0,0,0,0,0,0,0,0,0,0,0,no
6,0,0,0,1,0,1,1,6,0,6,6,0,no
36,0,6,5,2,7,2,1,6,1,5,3.5,1,no
12,0,2,1,0,0,0,0,0,0,0,0,0,no
5,0,0,0,0,0,1,1,5,0,5,5,0,no
12,2,1,1,0,0,2,2,4,4,4,4,1,no
35,0,7,2,3,0,1,1,1,1,2,2,0,no
3,0,0,0,0,0,0,0,0,0,0,0,0,no
76,1,17,5,3,6,1,1,1,1,2,2,0,no
8,0,2,2,0,1,0,0,0,0,0,0,0,no
6,0,1,1,0,0,1,1,6,0,6,6,0,no
3,0,0,0,0,0,0,0,0,0,0,0,0,no
3,0,0,0,0,0,0,0,0,0,0,0,0,no
3,0,0,0,0,0,0,0,0,0,0,0,0,no
11,1,2,2,0,0,0,0,0,0,0,0,0,no
7,1,1,1,1,1,0,0,0,0,0,0,0,no
4,0,0,0,0,0,0,0,0,0,0,0,0,no
19,1,4,2,2,4,1,1,0,2,2,2,0,no
13,1,2,1,0,0,1,1,13,0,13,13,0,no
3,0,0,0,0,0,0,0,0,0,0,0,0,no
5,0,0,0,0,0,1,1,2,0,2,2,0,no
3,0,0,0,0,0,0,0,0,0,0,0,0,no
3,0,0,0,0,0,0,0,0,0,0,0,0,no
8,0,1,1,1,2,0,0,0,0,0,0,0,no
0,2,0,0,1,0,0,0,0,0,0,0,0,no
2,0,0,0,1,0,0,0,0,0,0,0,0,no
5,0,1,1,1,0,0,0,0,0,0,0,0,no
3,0,0,0,0,0,0,0,0,0,0,0,0,no
5,0,1,0,0,0,0,0,0,0,0,0,0,no
3,0,0,0,0,0,0,0,0,0,0,0,0,no
3,0,1,0,0,0,0,0,0,0,0,0,0,no
5,0,1,0,0,0,0,0,0,0,0,0,0,no
3,0,0,0,0,0,0,0,0,0,0,0,0,no
3,0,0,0,0,0,0,0,0,0,0,0,0,no
3,0,0,0,0,0,0,0,0,0,0,0,0,no
3,0,0,0,0,0,0,0,0,0,0,0,0,no
3,0,0,0,0,0,0,0,0,0,0,0,0,no
3,0,0,0,0,0,0,0,0,0,0,0,0,no
4,0,0,0,0,0,0,0,0,0,0,0,0,no
3,0,0,0,0,0,0,0,0,0,0,0,0,no
3,0,0,0,0,0,0,0,0,0,0,0,0,no
4,1,0,0,0,0,0,0,0,0,0,0,0,no
5,1,0,0,0,0,0,0,0,0,0,0,0,no
12,0,1,1,0,1,0,0,0,0,0,0,0,no
3,0,0,0,0,0,0,0,0,0,0,0,0,no
11,1,2,1,0,1,1,1,1,1,2,2,0,no
0,0,0,0,1,0,0,0,0,0,0,0,0,no
0,0,0,0,1,0,0,0,0,0,0,0,0,no
13,3,0,0,0,1,1,1,13,0,13,13,0,no
7,1,1,1,2,3,1,1,7,0,7,7,0,no
72,0,9,4,3,9,1,1,72,0,72,72,0,no
3,0,0,0,0,0,1,1,3,0,3,3,0,no
3,0,0,0,0,0,1,1,3,0,3,3,0,no
6,2,1,1,1,1,1,1,6,0,6,6,0,no
16,2,4,1,0,1,1,1,16,0,16,16,0,no
3,0,0,0,0,0,2,1,4,1,3,2.5,0,no
7,1,2,2,0,0,2,1,7,0,6,3.5,0,no
14,2,3,2,3,1,1,1,14,0,14,14,0,no
13,0,2,2,0,0,2,1,14,1,14,7.5,0,no
57,0,12,3,2,1,2,1,57,0,31,28.5,0,no
32,0,6,2,3,4,1,1,32,0,32,32,0,yes
14,0,1,1,0,0,1,1,14,0,14,14,0,no
7,0,1,1,0,1,1,1,7,0,7,7,0,no
4,3,0,0,0,0,1,1,4,0,4,4,0,no
38,2,7,3,3,1,1,1,38,0,38,38,0,no
5,0,0,0,0,0,1,1,16,0,16,16,0,no
23,0,5,2,3,4,1,1,16,0,16,16,0,no
23,0,7,2,1,0,1,1,16,0,16,16,0,no
16,0,3,1,1,0,1,1,16,0,16,16,0,no
5,1,0,0,0,1,1,1,5,0,5,5,0,no
4,2,0,0,0,0,1,1,4,0,4,4,0,no
36,2,11,3,0,3,1,1,36,0,36,36,0,yes
14,3,0,0,0,0,1,1,14,0,14,14,0,no
21,0,6,3,2,0,1,1,21,0,21,21,0,no
6,0,1,1,0,1,2,1,6,0,5,3,0,no
3,1,0,0,0,0,1,1,3,0,3,3,0,no
6,0,1,1,0,0,2,1,7,1,6,4,0,no
13,0,2,1,0,0,2,1,18,5,18,11.5,0,no
4,0,0,0,0,0,1,1,4,0,4,4,0,no
39,0,6,3,1,7,1,1,39,0,39,39,0,no
19,0,4,2,2,0,1,1,19,0,19,19,0,no
15,0,4,2,2,0,1,1,15,0,15,15,0,no
34,0,6,3,1,6,1,1,34,0,34,34,0,no
3,1,0,0,0,0,1,1,3,0,3,3,0,no
6,2,2,0,2,3,1,1,6,0,6,6,0,no
4,1,0,0,0,1,1,1,4,0,4,4,0,no
8,1,2,2,0,0,2,1,10,2,10,6,0,no
18,1,1,1,0,1,3,2,19,1,17,6.666667,0,no
3,0,0,0,0,0,1,1,3,0,3,3,0,no
3,0,0,0,0,0,1,1,3,0,3,3,0,no
3,0,0,0,0,0,1,1,3,0,3,3,0,no
12,2,2,1,5,0,1,1,12,0,12,12,0,no
28,1,2,1,0,2,1,1,28,0,28,28,0,no
24,1,5,3,0,5,1,1,24,0,24,24,0,no
4,0,0,0,0,1,1,1,4,0,4,4,0,no
3,0,0,0,0,0,1,1,3,0,3,3,0,no
23,1,3,1,0,0,3,1,23,0,18,7.666667,0,no
6,0,0,0,0,0,3,1,7,1,5,2.666667,0,no
4,0,0,0,0,0,1,1,4,0,4,4,0,no
8,1,1,1,0,0,1,1,8,0,8,8,0,no
5,1,0,0,0,0,1,1,5,0,5,5,0,no
13,0,3,2,0,0,1,1,13,0,13,13,0,no
3,1,0,0,0,0,1,1,3,0,3,3,0,no
43,0,5,3,1,7,3,2,46,3,46,16.333333,0,no
11,3,2,2,0,2,1,1,11,0,11,11,0,no
4,3,0,0,0,0,1,1,4,0,4,4,0,no
18,2,3,3,1,3,3,2,21,3,21,8,0,no
12,2,3,3,1,2,3,2,15,3,15,6,0,no
4,0,0,0,0,0,1,1,4,0,4,4,0,no
4,2,0,0,0,0,1,1,4,0,4,4,0,no
3,1,0,0,0,0,1,1,3,0,3,3,0,no
3,2,0,0,0,0,1,1,3,0,3,3,0,no
3,2,0,0,0,0,1,1,3,0,3,3,0,no
3,1,0,0,0,0,1,1,3,0,3,3,0,no
3,2,0,0,0,0,1,1,3,0,3,3,0,no
3,1,0,0,0,0,1,1,3,0,3,3,0,no
3,2,0,0,0,0,1,1,3,0,3,3,0,no
13,3,0,0,0,1,2,1,14,1,13,7.5,0,no
43,1,8,3,0,5,1,1,43,0,43,43,0,no
6,1,0,0,1,2,1,1,6,0,6,6,0,no
3,0,0,0,0,0,1,1,3,0,3,3,0,no
9,2,2,2,1,2,1,1,9,0,9,9,0,no
50,0,10,3,5,5,1,1,50,0,50,50,0,no
21,0,4,2,0,0,2,1,45,24,45,34.5,0,no
29,0,5,1,0,0,5,1,30,1,23,6.2,0,no
3,0,0,0,0,0,1,1,3,0,3,3,0,no
36,0,8,3,0,3,1,1,36,0,36,36,0,no
4,2,0,0,0,0,1,1,4,0,4,4,0,no
4,0,0,0,0,0,1,1,4,0,4,4,0,no
8,1,0,0,0,0,0,0,0,0,0,0,0,no
8,2,0,0,0,0,0,0,0,0,0,0,0,no
2,0,0,0,0,0,0,0,0,0,0,0,0,no
11,0,2,1,1,2,0,0,0,0,0,0,0,no
14,1,2,1,0,3,0,0,0,0,0,0,0,no
14,3,2,1,0,3,0,0,0,0,0,0,0,no
23,0,4,2,0,3,0,0,0,0,0,0,0,no
5,1,0,0,0,0,0,0,0,0,0,0,0,no
5,2,0,0,0,0,0,0,0,0,0,0,0,no
3,0,0,0,0,0,0,0,0,0,0,0,0,no
15,0,3,2,2,1,0,0,0,0,0,0,0,no
10,1,2,2,0,0,0,0,0,0,0,0,0,no
14,1,3,2,0,0,0,0,0,0,0,0,0,no
7,3,1,1,0,0,0,0,0,0,0,0,0,no
5,1,0,0,0,1,0,0,0,0,0,0,0,no
25,1,4,2,0,6,2,1,2,2,2,2,0,no
4,1,0,0,0,0,1,1,4,0,4,4,0,no
11,1,4,1,4,0,1,1,11,0,11,11,0,no
16,1,3,2,0,4,1,1,16,0,16,16,0,no
3,0,0,0,0,0,1,1,3,0,3,3,0,no
13,1,2,1,2,2,1,1,13,0,13,13,0,no
4,1,0,0,0,0,1,1,4,0,4,4,0,no
5,1,1,1,0,0,1,1,5,0,5,5,0,no
3,1,0,0,0,0,1,1,3,0,3,3,0,no
3,1,0,0,0,0,1,1,3,0,3,3,0,no
0,1,0,0,0,0,1,1,0,0,0,0,0,no
0,1,0,0,0,0,1,1,0,0,0,0,0,no
15,2,1,1,1,4,1,1,15,0,15,15,0,no
3,1,0,0,0,0,1,1,3,0,3,3,0,no
3,0,0,0,0,0,1,1,3,0,3,3,0,no
25,2,6,3,2,4,1,1,25,0,25,25,0,no
3,3,0,0,0,0,1,1,3,0,3,3,0,no
45,4,10,3,2,7,1,1,45,0,45,45,0,no
5,5,2,0,0,2,1,1,5,0,5,5,0,no
41,1,8,2,3,8,1,1,41,0,41,41,0,no
3,3,0,0,0,0,1,1,3,0,3,3,0,no
3,0,0,0,0,0,1,1,3,0,3,3,0,no
12,0,3,3,0,1,1,1,12,0,12,12,0,no
24,1,4,3,0,5,1,1,24,0,24,24,0,no
9,3,2,1,0,2,1,1,9,0,9,9,0,no
3,0,0,0,0,0,1,1,3,0,3,3,0,no
6,1,0,0,0,1,1,1,6,0,6,6,0,no
10,2,0,0,0,2,1,1,10,0,10,10,0,no
7,2,0,0,0,1,1,1,7,0,7,7,0,no
3,1,0,0,0,0,1,1,3,0,3,3,0,no
9,3,2,1,0,2,1,1,9,0,9,9,0,no
3,0,0,0,0,0,1,1,3,0,3,3,0,no
6,1,0,0,0,1,1,1,6,0,6,6,0,no
13,2,0,0,0,3,1,1,13,0,13,13,0,no
7,2,0,0,0,1,1,1,7,0,7,7,0,no
0,3,0,0,0,0,1,1,0,0,0,0,0,no
0,0,0,0,0,0,1,1,0,0,0,0,0,no
0,1,0,0,0,0,1,1,0,0,0,0,0,no
0,2,0,0,0,0,1,1,0,0,0,0,0,no
0,2,0,0,0,0,1,1,0,0,0,0,0,no
8,0,0,0,0,0,1,1,8,0,8,8,0,no
3,0,0,0,0,0,1,1,3,0,3,3,0,no
13,2,4,4,1,1,1,1,13,0,13,13,1,no
20,1,5,3,4,3,1,1,20,0,20,20,0,no
3,0,0,0,0,0,1,1,0,3,3,3,0,no
5,1,0,0,1,0,0,0,0,0,0,0,0,no
14,0,2,1,0,1,2,2,2,2,2,2,1,no
23,1,4,2,2,3,1,1,10,0,10,10,0,no
19,1,2,2,0,1,2,1,19,0,18,9.5,0,no
17,1,2,1,0,1,5,4,4,3,2,1.4,0,no
3,0,0,0,0,0,0,0,0,0,0,0,0,no
38,2,6,4,2,8,1,1,1,1,2,2,0,no
5,1,1,1,0,0,1,1,5,0,5,5,1,no
9,0,2,2,0,0,1,1,9,0,9,9,1,no
13,1,2,1,3,1,0,0,0,0,0,0,0,no
3,0,0,0,0,0,0,0,0,0,0,0,0,no
3,0,0,0,0,0,1,1,3,0,3,3,0,no
7,2,1,1,0,1,0,0,0,0,0,0,0,no
9,1,2,1,0,1,0,0,0,0,0,0,0,no
7,2,1,1,1,2,1,1,7,0,7,7,0,no
6,0,1,1,0,0,0,0,0,0,0,0,0,no
6,1,1,1,0,0,0,0,0,0,0,0,0,no
5,0,1,1,1,1,0,0,0,0,0,0,0,no
3,1,0,0,0,0,0,0,0,0,0,0,0,no
3,2,0,0,0,0,0,0,0,0,0,0,0,no
4,2,0,0,0,0,1,1,4,0,4,4,0,no
8,2,0,0,0,0,1,1,8,0,8,8,0,no
0,2,0,0,0,0,1,1,0,0,0,0,0,no
3,0,0,0,0,0,1,1,3,0,3,3,0,no
14,5,3,3,0,1,1,1,14,0,14,14,0,no
11,4,2,1,0,1,1,1,11,0,11,11,0,no
15,1,2,2,1,2,1,1,15,0,15,15,0,no
12,2,2,1,0,1,1,1,12,0,12,12,0,no
7,0,1,1,1,0,1,1,1,1,2,2,0,no
0,0,0,0,0,0,0,0,0,0,0,0,0,no
5,0,0,0,0,0,0,0,0,0,0,0,0,no
8,1,0,1,0,0,0,0,0,0,0,0,0,no
8,2,0,1,0,0,0,0,0,0,0,0,0,no
10,1,0,1,0,0,0,0,0,0,0,0,0,no
22,0,2,2,0,1,0,0,0,0,0,0,0,no
3,1,0,0,0,0,1,1,3,0,3,3,0,no
9,1,1,1,0,1,1,1,9,0,9,9,0,no
3,1,0,0,0,0,1,1,3,0,3,3,0,no
6,1,0,0,0,2,1,1,6,0,6,6,0,no
3,1,0,0,0,0,0,0,0,0,0,0,0,no
14,1,2,1,2,3,0,0,0,0,0,0,0,no
8,1,1,1,0,1,1,1,11,0,11,11,0,no
11,1,2,2,0,2,1,1,11,0,11,11,0,no
0,1,0,0,1,0,1,1,0,0,0,0,0,no
0,1,0,0,1,0,1,1,0,0,0,0,0,no
11,2,2,1,0,1,1,1,11,0,11,11,0,no
13,5,2,2,0,2,1,1,13,0,13,13,0,no
21,7,2,1,0,0,1,1,21,0,21,21,1,no
25,2,3,1,0,1,1,1,25,0,25,25,0,no
23,3,2,1,2,0,1,1,23,0,23,23,0,no
18,3,2,1,2,0,1,1,18,0,18,18,0,no
8,4,1,1,1,0,1,1,8,0,8,8,0,no
10,2,1,1,0,0,1,1,10,0,10,10,0,no
16,4,2,1,0,0,1,1,16,0,16,16,1,no
7,4,1,1,0,0,1,1,7,0,7,7,1,no
0,1,0,0,1,0,1,1,0,0,0,0,0,no
6,1,1,1,0,0,1,1,6,0,6,6,0,no
9,1,2,1,0,0,1,1,9,0,9,9,0,no
4,2,0,0,0,0,1,1,4,0,4,4,0,no
3,0,0,0,0,0,1,1,3,0,3,3,0,no
3,0,0,0,0,0,1,1,3,0,3,3,0,no
3,1,0,0,0,0,1,1,3,0,3,3,0,no
3,1,0,0,0,0,1,1,3,0,3,3,0,no
3,1,0,0,0,0,1,1,3,0,3,3,0,no
3,0,0,0,0,0,1,1,3,0,3,3,0,no
18,1,4,1,3,0,1,1,18,0,18,18,0,no
5,0,1,1,0,0,1,1,5,0,5,5,0,no
3,1,0,0,0,0,1,1,3,0,3,3,0,no
3,2,0,0,0,0,1,1,3,0,3,3,0,no
3,0,0,0,0,0,1,1,3,0,3,3,0,no
3,0,0,0,0,0,1,1,3,0,3,3,0,no
3,0,0,0,0,0,1,1,3,0,3,3,0,no
0,0,0,0,1,0,1,1,0,0,0,0,0,no
0,0,0,0,1,0,1,1,0,0,0,0,0,no
0,0,0,0,1,0,1,1,0,0,0,0,0,no
0,5,0,0,1,0,1,1,0,0,0,0,0,no
0,4,0,0,1,0,1,1,0,0,0,0,0,no
0,4,0,0,1,0,1,1,0,0,0,0,0,no
0,2,0,0,1,0,1,1,0,0,0,0,0,no
0,1,0,0,1,0,1,1,0,0,0,0,0,no
0,4,0,0,1,0,1,1,0,0,0,0,0,no
0,5,0,0,1,0,1,1,0,0,0,0,0,no
0,5,0,0,1,0,1,1,0,0,0,0,0,no
0,4,0,0,1,0,1,1,0,0,0,0,0,no
0,2,0,0,1,0,1,1,0,0,0,0,0,no
0,3,0,0,1,0,1,1,0,0,0,0,0,no
0,1,0,0,1,0,1,1,0,0,0,0,0,no
0,2,0,0,1,0,1,1,0,0,0,0,0,no
0,1,0,0,1,0,1,1,0,0,0,0,0,no
0,3,0,0,1,0,1,1,0,0,0,0,0,no
0,4,0,0,1,0,1,1,0,0,0,0,0,no
0,2,0,0,1,0,1,1,0,0,0,0,0,no
0,3,0,0,1,0,1,1,0,0,0,0,0,no
0,3,0,0,1,0,1,1,0,0,0,0,0,no
0,2,0,0,1,0,1,1,0,0,0,0,0,no
8,11,0,0,0,0,1,1,8,0,8,8,0,no
37,0,6,3,1,11,3,3,38,1,36,13,1,no
9,1,1,1,1,4,1,1,9,0,9,9,0,no
20,1,2,1,0,5,3,3,21,1,19,7.333333,1,no
3,5,0,0,0,0,1,1,3,0,3,3,0,no
5,8,0,0,0,0,1,1,5,0,5,5,0,no
33,0,4,2,2,6,4,4,35,2,33,9.25,1,no
10,1,3,2,1,1,1,1,10,0,10,10,0,no
15,5,3,2,1,4,3,3,16,1,14,5.666667,1,no
3,1,0,0,0,0,1,1,3,0,3,3,0,no
14,5,2,1,2,2,2,2,15,1,15,8,0,no
3,2,0,0,0,0,2,2,4,1,3,2.5,0,no
5,1,0,0,0,0,2,2,6,1,5,3.5,0,no
5,1,0,0,0,0,2,2,6,1,5,3.5,0,no
3,2,0,0,0,0,1,1,3,0,3,3,0,no
3,2,0,0,0,0,1,1,3,0,3,3,0,no
25,2,5,4,1,2,2,2,25,0,23,12.5,1,no
11,1,4,1,2,1,2,2,12,1,11,6.5,0,no
5,0,1,1,0,0,1,1,5,0,5,5,1,no
3,1,0,0,0,0,1,1,3,0,3,3,0,no
12,0,3,3,0,2,1,1,12,0,12,12,0,no
9,3,1,1,0,1,1,1,9,0,9,9,0,no
11,1,2,2,0,3,1,1,11,0,11,11,0,no
10,1,1,1,0,1,1,1,10,0,10,10,0,no
3,0,0,0,0,0,1,1,3,0,3,3,1,no
4,1,0,0,0,1,1,1,4,0,4,4,0,no
14,6,2,1,0,0,1,1,14,0,14,14,0,no
6,2,0,0,0,0,1,1,6,0,6,6,0,no
3,3,0,0,0,0,1,1,3,0,3,3,0,no
29,0,3,3,3,15,2,2,30,1,29,15.5,0,no
35,1,1,1,0,6,2,2,35,0,20,17.5,0,no
3,0,0,0,0,0,1,1,3,0,3,3,0,no
3,0,0,0,0,0,1,1,3,0,3,3,0,no
3,0,0,0,0,0,1,1,3,0,3,3,0,no
5,0,1,1,1,0,1,1,5,0,5,5,0,no
6,0,1,1,2,0,1,1,6,0,6,6,0,no
3,0,0,0,0,0,1,1,3,0,3,3,0,no
3,0,0,0,0,0,1,1,3,0,3,3,0,no
3,0,0,0,0,0,1,1,3,0,3,3,0,no
3,0,0,0,0,0,1,1,3,0,3,3,0,no
3,0,0,0,0,0,1,1,3,0,3,3,0,no
3,0,0,0,0,0,1,1,3,0,3,3,0,no
3,0,0,0,0,0,1,1,3,0,3,3,0,no
3,0,0,0,0,0,1,1,3,0,3,3,0,no
3,0,0,0,0,0,1,1,3,0,3,3,0,no
3,0,0,0,0,0,1,1,3,0,3,3,0,no
3,0,0,0,0,0,1,1,3,0,3,3,0,no
5,0,1,1,0,0,1,1,5,0,5,5,0,no
4,2,0,0,0,0,1,1,4,0,4,4,0,no
10,0,2,1,0,1,2,2,11,1,10,6,0,no
9,7,0,0,0,0,1,1,9,0,9,9,0,no
8,0,3,1,3,0,1,1,8,0,8,8,0,no
3,0,0,0,0,0,1,1,3,0,3,3,0,no
3,0,0,0,0,0,1,1,3,0,3,3,0,no
3,0,0,0,0,0,1,1,3,0,3,3,0,no
3,2,0,0,0,0,1,1,3,0,3,3,0,no
3,1,0,0,0,0,1,1,3,0,3,3,0,no
3,1,0,0,0,0,1,1,3,0,3,3,0,no
38,0,13,2,10,4,2,2,39,1,38,20,0,no
5,2,0,0,0,0,1,1,5,0,5,5,0,no
8,1,2,1,2,1,1,1,8,0,8,8,0,no
3,0,0,0,0,0,1,1,3,0,3,3,0,no
3,0,0,0,0,0,1,1,3,0,3,3,0,no
3,0,0,0,0,0,1,1,3,0,3,3,0,no
8,0,2,1,2,1,1,1,8,0,8,8,0,no
3,1,0,0,0,0,1,1,3,0,3,3,1,no
3,2,0,0,0,0,1,1,3,0,3,3,1,no
3,1,0,0,0,0,1,1,3,0,3,3,0,no
3,2,0,0,0,0,1,1,3,0,3,3,0,no
3,1,0,0,0,0,1,1,3,0,3,3,0,no
3,2,0,0,0,0,1,1,3,0,3,3,0,no
3,1,0,0,0,0,1,1,3,0,3,3,0,no
3,2,0,0,0,0,1,1,3,0,3,3,0,no
3,1,0,0,0,0,1,1,3,0,3,3,0,no
3,2,0,0,0,0,1,1,3,0,3,3,0,no
3,1,0,0,0,0,1,1,3,0,3,3,0,no
3,2,0,0,0,0,1,1,3,0,3,3,0,no
4,2,0,0,0,0,1,1,4,0,4,4,0,no
43,3,8,2,1,7,1,1,43,0,43,43,0,no
0,3,0,0,0,0,1,1,0,0,0,0,0,no
3,2,0,0,0,0,1,1,3,0,3,3,0,no
20,3,5,1,1,0,1,1,20,0,20,20,0,no
4,2,0,0,0,0,1,1,4,0,4,4,0,no
5,2,0,0,0,1,2,2,6,1,6,3.5,0,no
9,2,1,1,1,2,5,4,19,10,12,5.8,0,no
3,1,0,0,0,0,1,1,3,0,3,3,0,no
8,0,1,1,1,1,5,4,17,9,12,5.2,0,no
3,1,0,0,0,0,1,1,3,0,3,3,0,no
3,0,0,0,0,0,1,1,3,0,3,3,0,no
3,0,0,0,0,0,1,1,3,0,3,3,0,no
3,0,0,0,0,0,1,1,3,0,3,3,0,no
9,2,0,0,1,0,2,2,10,1,10,5.5,0,no
9,2,0,0,1,0,2,1,10,1,10,5.5,0,no
3,2,0,0,0,0,1,1,3,0,3,3,0,no
17,3,5,1,1,0,1,1,17,0,17,17,0,no
3,2,0,0,0,0,1,1,3,0,3,3,0,no
0,3,0,0,0,0,1,1,0,0,0,0,0,no
0,2,0,0,0,0,1,1,0,0,0,0,0,no
0,2,0,0,0,0,1,1,0,0,0,0,0,no
0,1,0,0,0,0,5,3,18,18,16,7.2,1,no
0,3,0,0,0,0,1,1,0,0,0,0,0,no
0,1,0,0,0,0,1,1,0,0,0,0,0,no
0,2,0,0,0,0,1,1,0,0,0,0,0,no
0,2,0,0,0,0,1,1,0,0,0,0,0,no
0,2,0,0,0,0,1,1,0,0,0,0,0,no
0,1,0,0,0,0,1,1,0,0,0,0,0,no
3,2,0,0,0,0,1,1,3,0,3,3,0,no
20,3,5,1,1,0,1,1,20,0,20,20,0,no
3,0,0,0,0,0,1,1,3,0,3,3,0,no
20,2,2,2,0,1,1,1,20,0,20,20,0,no
17,0,2,2,0,1,1,1,17,0,17,17,0,no
3,1,0,0,0,0,1,1,3,0,3,3,0,no
3,0,0,0,0,0,1,1,3,0,3,3,0,no
3,1,0,0,0,0,1,1,3,0,3,3,0,no
3,2,0,0,0,0,1,1,3,0,3,3,0,no
34,3,6,3,2,1,1,1,34,0,34,34,0,no
4,2,0,0,0,0,1,1,4,0,4,4,0,no
11,5,2,1,0,1,1,1,11,0,11,11,0,no
3,0,0,0,0,0,1,1,3,0,3,3,0,no
3,0,0,0,0,0,1,1,3,0,3,3,0,no
3,0,0,0,0,0,1,1,3,0,3,3,0,no
3,0,0,0,0,0,1,1,3,0,3,3,0,no
0,0,0,0,1,0,1,1,0,0,0,0,0,no
0,1,0,0,1,0,1,1,0,0,0,0,0,no
0,0,0,0,1,0,1,1,0,0,0,0,0,no
0,1,0,0,1,0,1,1,0,0,0,0,0,no
0,3,0,0,1,0,1,1,0,0,0,0,0,no
0,0,0,0,1,0,1,1,0,0,0,0,0,no
0,1,0,0,1,0,1,1,0,0,0,0,0,no
0,0,0,0,1,0,1,1,0,0,0,0,0,no
0,0,0,0,1,0,1,1,0,0,0,0,0,no
0,0,0,0,1,0,1,1,0,0,0,0,0,no
0,2,0,0,1,0,1,1,0,0,0,0,0,no
0,2,0,0,1,0,1,1,0,0,0,0,0,no
0,2,0,0,1,0,1,1,0,0,0,0,0,no
0,1,0,0,1,0,1,1,0,0,0,0,0,no
0,1,0,0,1,0,1,1,0,0,0,0,0,no
0,2,0,0,1,0,1,1,0,0,0,0,0,no
0,1,0,0,1,0,1,1,0,0,0,0,0,no
4,1,0,0,0,0,1,1,4,0,4,4,0,no
11,2,1,1,0,0,4,2,17,6,12,5.75,0,no
8,0,1,1,0,0,3,2,21,13,21,11.333333,1,no
3,1,0,0,0,0,1,1,3,0,3,3,0,no
3,2,0,0,0,0,1,1,3,0,3,3,0,no
3,0,0,0,0,0,1,1,3,0,3,3,0,no
3,0,0,0,0,0,1,1,3,0,3,3,0,no
3,0,0,0,0,0,1,1,3,0,3,3,0,no
3,0,0,0,0,0,1,1,3,0,3,3,0,no
3,1,0,0,0,0,1,1,3,0,3,3,0,no
3,1,0,0,0,0,2,2,4,1,4,2.5,0,no
3,4,0,0,0,0,4,3,21,18,17,9.75,0,no
3,4,0,0,0,0,2,2,4,1,3,2.5,0,no
7,4,1,1,0,1,3,2,22,15,20,12.333333,0,no
35,2,9,4,2,4,3,3,35,0,29,11.666667,0,no
3,1,0,0,0,0,1,1,3,0,3,3,0,no
3,2,0,0,0,0,1,1,3,0,3,3,0,no
7,2,1,1,0,0,1,1,7,0,7,7,0,no
4,1,0,0,0,0,3,2,5,1,4,2,0,no
3,1,0,0,0,0,2,1,4,1,3,2.5,0,no
3,4,0,0,0,0,4,4,27,24,25,12.75,0,no
17,6,4,2,0,3,4,2,21,4,15,6.25,1,no
4,5,0,0,0,1,2,2,4,0,3,2,0,no
3,5,0,0,0,0,1,1,3,0,3,3,0,no
7,6,1,1,0,0,3,2,9,2,7,3.666667,0,no
3,4,0,0,0,0,3,3,5,2,3,2.333333,0,no
3,5,0,0,0,0,3,3,17,14,16,10.333333,0,no
15,2,3,2,2,2,2,2,16,1,15,8.5,0,no
9,3,1,1,0,2,3,3,11,2,10,4.333333,0,no
10,4,1,1,1,1,4,2,29,19,25,12,0,no
16,5,1,1,0,0,2,2,17,1,16,9,0,no
3,1,0,0,1,0,1,1,3,0,3,3,0,no
5,2,0,0,0,2,2,2,5,0,3,2.5,0,no
6,2,1,1,5,0,1,1,6,0,6,6,0,no
3,1,0,0,0,0,2,1,4,1,3,2.5,0,no
5,3,0,0,0,1,4,3,23,18,20,10.25,1,no
9,4,1,1,0,1,2,1,16,7,16,11.5,0,no
5,2,0,0,0,1,6,4,27,22,20,8.166667,1,no
38,4,10,6,6,4,3,1,39,1,33,13.333333,1,no
4,3,0,0,0,1,2,2,4,0,3,2,0,no
3,3,0,0,0,0,1,1,3,0,3,3,0,no
11,4,2,1,0,0,2,1,12,1,11,6.5,0,no
3,2,0,0,0,0,1,1,3,0,3,3,0,no
12,3,2,1,0,0,2,2,13,1,12,7,0,no
3,2,0,0,0,0,3,3,5,2,3,2.333333,0,no
3,2,0,0,0,0,1,1,3,0,3,3,0,no
5,1,0,0,0,1,1,1,5,0,5,5,0,no
12,3,0,0,0,2,1,1,12,0,12,12,0,no
30,2,6,2,1,1,2,1,30,0,27,15,0,no
5,1,0,0,0,1,1,1,5,0,5,5,0,no
13,1,1,1,0,2,1,1,13,0,13,13,0,no
5,1,0,0,0,1,1,1,5,0,5,5,0,no
3,1,0,0,0,0,1,1,3,0,3,3,0,no
16,1,4,1,0,1,3,2,17,1,13,6,0,no
3,0,0,0,0,0,1,1,3,0,3,3,0,no
3,1,0,0,0,0,1,1,3,0,3,3,0,no
5,3,1,1,0,1,1,1,5,0,5,5,0,no
3,1,0,0,0,0,1,1,3,0,3,3,0,no
3,1,0,0,0,0,1,1,3,0,3,3,0,no
3,2,0,0,0,0,1,1,3,0,3,3,0,no
3,2,0,0,0,0,1,1,3,0,3,3,0,no
12,2,1,1,0,0,1,1,12,0,12,12,0,no
0,0,0,0,0,0,1,1,0,0,0,0,0,no
13,1,2,2,1,2,1,1,13,0,13,13,0,no
19,2,4,3,3,2,1,1,19,0,19,19,0,no
17,0,1,2,0,0,1,1,17,0,17,17,0,no
0,0,0,0,0,0,1,1,0,0,0,0,0,no
5,1,0,0,0,2,1,1,5,0,5,5,0,no
4,1,0,0,0,1,1,1,4,0,4,4,0,no
0,1,0,0,0,0,1,1,0,0,0,0,0,no
0,1,0,0,0,0,1,1,0,0,0,0,0,no
3,0,0,0,0,0,1,1,3,0,3,3,0,no
3,0,0,0,0,0,1,1,3,0,3,3,0,no
3,1,0,0,0,0,1,1,3,0,3,3,0,no
12,1,2,2,0,2,1,1,12,0,12,12,0,no
3,0,0,0,0,0,1,1,3,0,3,3,0,no
3,0,0,0,0,0,1,1,3,0,3,3,0,no
0,1,0,0,0,0,1,1,0,0,0,0,0,no
0,1,0,0,0,0,1,1,0,0,0,0,0,no
0,0,0,0,0,0,1,1,0,0,0,0,0,no
3,0,0,0,0,0,1,1,3,0,3,3,0,no
8,0,0,1,0,0,1,1,8,0,8,8,0,no
3,0,0,0,0,0,1,1,3,0,3,3,0,no
14,2,3,1,1,2,1,1,14,0,14,14,0,no
0,2,0,0,0,0,1,1,0,0,0,0,0,no
19,2,4,2,1,1,1,1,19,0,19,19,0,no
0,1,0,0,0,0,1,1,0,0,0,0,0,no
12,2,1,2,0,0,1,1,12,0,12,12,0,no
13,3,1,1,3,2,1,1,13,0,13,13,0,no
3,2,0,0,0,0,1,1,3,0,3,3,0,no
30,2,6,2,3,3,1,1,30,0,30,30,0,no
13,1,2,1,0,2,1,1,13,0,13,13,0,no
18,2,1,2,1,0,1,1,18,0,18,18,0,no
10,2,1,1,1,1,1,1,10,0,10,10,0,no
4,1,0,0,1,0,1,1,4,0,4,4,0,no
5,1,1,1,1,0,1,1,5,0,5,5,0,no
4,0,0,0,1,0,1,1,4,0,4,4,0,no
15,0,3,2,0,2,1,1,15,0,15,15,0,no
4,2,0,0,0,0,1,1,4,0,4,4,0,no
8,2,1,1,0,1,1,1,8,0,8,8,0,no
8,2,1,1,1,1,1,1,8,0,8,8,0,no
8,2,1,1,1,1,1,1,8,0,8,8,0,no
3,7,0,0,0,0,1,1,3,0,3,3,0,no
3,1,0,0,0,0,1,1,3,0,3,3,0,no
3,0,0,0,0,0,1,1,3,0,3,3,0,no
3,0,0,0,0,0,1,1,3,0,3,3,0,no
57,3,12,5,1,8,3,1,59,2,58,20.333333,0,no
13,1,2,1,1,3,1,1,13,0,13,13,0,no
12,3,2,1,1,2,1,1,12,0,12,12,0,no
0,3,0,0,0,0,1,1,0,0,0,0,0,no
3,1,0,0,0,0,1,1,3,0,3,3,0,no
11,2,2,1,1,1,1,1,11,0,11,11,0,no
8,2,0,1,0,0,1,1,8,0,8,8,0,no
4,2,0,0,1,0,1,1,4,0,4,4,0,no
5,1,1,1,0,1,1,1,5,0,5,5,0,no
2,2,0,0,0,0,1,1,2,0,2,2,0,no
10,2,3,1,2,0,1,1,10,0,10,10,0,no
3,2,0,0,0,0,1,1,3,0,3,3,0,no
6,2,1,1,0,0,1,1,6,0,6,6,0,no
10,2,2,1,0,1,1,1,10,0,10,10,0,no
10,1,2,1,0,1,1,1,10,0,10,10,0,no
9,7,0,0,0,0,1,1,9,0,9,9,0,no
10,1,2,1,1,0,1,1,10,0,10,10,0,no
15,1,2,1,1,2,1,1,15,0,15,15,0,no
3,0,0,0,0,0,1,1,3,0,3,3,0,no
3,0,0,0,0,0,1,1,3,0,3,3,0,no
10,1,2,2,0,0,1,1,10,0,10,10,0,no
10,1,3,3,0,0,1,1,10,0,10,10,0,no
19,1,3,1,0,2,2,1,19,0,18,9.5,0,no
33,1,9,4,1,3,1,1,33,0,33,33,0,no
3,0,0,0,0,0,1,1,3,0,3,3,0,no
4,1,0,0,0,1,1,1,4,0,4,4,0,no
13,1,2,1,0,0,1,1,13,0,13,13,0,no
5,1,1,1,1,0,1,1,5,0,5,5,0,no
4,2,0,0,0,0,1,1,4,0,4,4,0,no
3,0,0,0,0,0,1,1,3,0,3,3,0,no
0,0,0,0,0,0,1,1,0,0,0,0,0,no
12,0,1,1,0,1,1,1,1,1,2,2,0,no
3,2,0,0,0,0,1,1,3,0,3,3,0,no
26,1,3,1,1,2,1,1,26,0,26,26,0,no
5,0,0,0,0,1,1,1,5,0,5,5,0,no
14,1,2,1,1,0,1,1,14,0,14,14,0,no
6,3,0,0,0,0,1,1,6,0,6,6,0,no
3,2,0,0,0,0,1,1,3,0,3,3,0,no
6,2,1,1,0,0,1,1,6,0,6,6,0,no
20,2,4,1,1,2,1,1,20,0,20,20,0,no
7,3,1,1,1,0,1,1,7,0,7,7,0,no
7,0,1,1,0,3,1,1,7,0,7,7,0,no
3,0,0,0,0,0,1,1,3,0,3,3,0,no
4,2,0,0,1,0,1,1,4,0,4,4,0,no
3,0,0,0,0,0,1,1,3,0,3,3,0,no
46,2,9,3,4,6,2,1,46,0,33,23,0,no
3,1,0,0,0,0,1,1,3,0,3,3,0,no
3,2,0,0,0,0,1,1,3,0,3,3,0,no
4,3,0,0,0,0,1,1,4,0,4,4,0,no
7,4,0,0,0,0,1,1,7,0,7,7,0,no
3,0,0,0,0,0,1,1,3,0,3,3,0,no
22,1,4,1,0,0,1,1,22,0,22,22,0,no
26,0,3,1,0,1,1,1,26,0,26,26,0,no
8,2,0,0,0,1,1,1,8,0,8,8,0,no
4,1,0,0,0,1,1,1,4,0,4,4,0,no
3,0,0,0,0,0,1,1,3,0,3,3,0,no
10,1,2,1,0,1,1,1,10,0,10,10,0,no
12,0,1,1,0,2,1,1,12,0,12,12,0,no
17,1,2,1,0,2,1,1,17,0,17,17,0,no
14,1,2,2,1,1,1,1,14,0,14,14,0,no
20,1,4,2,0,1,1,1,20,0,20,20,0,no
5,0,0,0,0,1,1,1,5,0,5,5,0,no
15,2,2,1,1,1,1,1,15,0,15,15,0,no
14,1,2,1,0,0,1,1,14,0,14,14,0,no
3,2,0,0,0,0,1,1,3,0,3,3,0,no
6,0,0,0,0,1,1,1,6,0,6,6,0,no
6,4,0,0,0,0,1,1,6,0,6,6,0,no
9,2,2,1,1,0,1,1,3,0,3,3,0,no
11,2,3,1,3,0,0,0,0,0,0,0,0,no
8,0,1,1,1,0,1,1,3,0,3,3,0,no
5,2,0,0,0,0,1,1,5,0,5,5,0,no
31,1,6,3,1,3,1,1,2,0,2,2,0,no
6,2,0,0,0,0,2,1,6,0,5,3,0,no
9,3,1,1,0,1,1,1,9,0,9,9,0,no
13,0,3,2,0,2,1,1,13,0,13,13,0,no
3,0,0,0,0,0,1,1,3,0,3,3,0,no
5,1,0,0,0,2,1,1,5,0,5,5,0,no
4,1,0,0,0,1,1,1,4,0,4,4,0,no
17,1,3,1,0,3,1,1,17,0,17,17,0,no
3,1,0,0,0,0,1,1,3,0,3,3,0,no
8,1,1,1,0,1,1,1,8,0,8,8,0,no
12,1,2,2,0,2,1,1,12,0,12,12,0,no
3,0,0,0,0,0,1,1,3,0,3,3,0,no
19,2,4,2,1,3,1,1,19,0,19,19,0,no
3,2,0,0,0,0,1,1,3,0,3,3,0,no
3,1,0,0,0,0,1,1,3,0,3,3,0,no
3,2,0,0,0,0,1,1,3,0,3,3,0,no
21,3,5,3,0,2,1,1,21,0,21,21,0,no
9,1,1,1,0,1,1,1,9,0,9,9,0,no
3,2,0,0,0,0,1,1,3,0,3,3,0,no
8,3,1,1,0,1,1,1,8,0,8,8,0,no
4,2,0,0,0,0,1,1,4,0,4,4,0,no
22,3,1,1,1,3,3,1,27,5,26,10.666667,0,no
12,3,2,2,0,2,2,1,66,54,66,60,0,no
14,3,2,2,0,2,1,1,14,0,14,14,0,no
3,2,0,0,0,0,1,1,3,0,3,3,0,no
5,2,0,0,0,0,3,1,10,5,9,5,0,no
3,2,0,0,0,0,1,1,3,0,3,3,0,no
6,0,0,0,0,1,1,1,6,0,6,6,0,no
5,2,0,0,0,0,1,1,5,0,5,5,0,no
30,3,4,1,0,3,1,1,30,0,30,30,0,no
13,0,3,2,0,2,1,1,13,0,13,13,0,no
3,0,0,0,0,0,1,1,3,0,3,3,0,no
4,1,0,0,0,1,1,1,4,0,4,4,0,no
3,1,0,0,0,0,1,1,3,0,3,3,0,no
17,1,3,1,0,3,1,1,17,0,17,17,0,no
3,1,0,0,0,0,1,1,3,0,3,3,0,no
17,1,3,3,0,2,1,1,17,0,17,17,0,no
3,0,0,0,0,0,1,1,3,0,3,3,0,no
9,2,1,1,1,1,1,1,9,0,9,9,0,no
3,1,0,0,0,0,1,1,3,0,3,3,0,no
3,2,0,0,0,0,1,1,3,0,3,3,0,no
21,3,5,3,0,2,1,1,21,0,21,21,0,no
9,1,1,1,0,1,1,1,9,0,9,9,0,no
10,3,1,1,0,3,1,1,10,0,10,10,0,no
23,1,2,2,0,3,1,1,23,0,23,23,0,no
8,2,1,1,0,0,1,1,8,0,8,8,0,no
3,2,0,0,0,0,1,1,3,0,3,3,0,no
8,1,1,1,0,0,1,1,8,0,8,8,0,no
4,2,0,0,0,0,3,1,5,1,4,2,0,no
3,3,0,0,0,0,1,1,3,0,3,3,0,no
3,7,0,0,0,0,1,1,3,0,3,3,0,no
3,0,0,0,0,0,1,1,3,0,3,3,0,no
6,1,1,1,0,0,1,1,6,0,6,6,0,no
7,3,1,1,0,0,2,1,47,40,47,43.5,0,no
9,1,1,1,1,2,2,1,18,9,18,13.5,0,no
14,3,2,2,0,2,1,1,14,0,14,14,0,no
6,1,1,1,0,0,2,1,7,1,7,4,0,no
4,2,0,0,0,0,1,1,4,0,4,4,0,no
8,2,1,1,0,0,1,1,8,0,8,8,0,no
4,7,0,0,0,0,1,1,4,0,4,4,0,no
9,1,2,2,2,0,1,1,9,0,9,9,0,no
12,1,1,1,0,1,1,1,12,0,12,12,0,no
12,0,1,1,0,1,1,1,12,0,12,12,0,no
10,1,2,2,0,0,1,1,10,0,10,10,0,no
5,1,1,1,0,0,1,1,5,0,5,5,0,no
5,1,1,1,0,0,1,1,5,0,5,5,0,no
3,2,0,0,0,0,1,1,3,0,3,3,0,no
6,0,0,0,0,1,2,1,6,0,5,3,0,no
8,1,1,1,1,0,1,1,8,0,8,8,0,no
3,0,0,0,0,0,1,1,3,0,3,3,0,no
3,0,0,0,0,0,1,1,3,0,3,3,0,no
5,0,0,0,0,1,1,1,5,0,5,5,0,no
14,0,0,0,0,0,1,1,14,0,14,14,0,no
0,0,0,0,0,0,1,1,0,0,0,0,0,no
2,2,0,0,0,0,1,1,2,0,2,2,0,no
2,2,0,0,0,0,1,1,2,0,2,2,0,no
3,0,0,0,0,0,1,1,3,0,3,3,0,no
3,0,0,0,0,0,1,1,3,0,3,3,0,no
3,1,0,0,0,0,1,1,3,0,3,3,1,no
3,0,0,0,0,0,1,1,3,0,3,3,0,no
4,1,0,0,0,1,1,1,4,0,4,4,0,no
0,3,0,0,1,0,1,1,0,0,0,0,0,no
0,1,0,0,1,0,1,1,0,0,0,0,0,no
6,1,1,1,0,1,2,1,7,1,6,4,0,no
6,3,1,1,0,1,2,1,7,1,6,4,0,no
8,1,2,2,0,1,2,1,9,1,8,5,0,no
6,0,1,1,0,1,2,1,7,1,6,4,0,no
0,1,0,0,1,0,1,1,0,0,0,0,0,no
0,0,0,0,1,0,1,1,0,0,0,0,0,no
0,2,0,0,1,0,1,1,0,0,0,0,0,no
0,2,0,0,1,0,1,1,0,0,0,0,0,no
12,2,0,0,0,0,1,1,12,0,12,12,0,no
3,3,0,0,0,0,1,1,3,0,3,3,0,no
16,4,2,1,2,0,1,1,16,0,16,16,0,no
3,3,0,0,0,0,2,2,4,1,3,2.5,0,no
33,7,5,3,2,2,1,1,33,0,33,33,0,no
3,4,0,0,0,0,1,1,3,0,3,3,0,no
3,0,0,0,0,0,1,1,3,0,3,3,0,no
2,2,0,0,1,0,1,1,2,0,2,2,0,no
2,2,0,0,1,0,1,1,2,0,2,2,0,no
5,2,1,1,1,0,1,1,5,0,5,5,0,no
5,2,1,1,1,0,1,1,5,0,5,5,0,no
3,2,0,0,0,0,1,1,3,0,3,3,0,no
3,2,0,0,0,0,1,1,3,0,3,3,0,no
6,2,1,1,1,0,1,1,6,0,6,6,0,no
5,2,1,1,1,0,1,1,5,0,5,5,0,no
9,0,2,2,0,0,1,1,9,0,9,9,0,no
7,1,1,1,0,0,1,1,7,0,7,7,0,no
7,2,1,1,0,0,1,1,7,0,7,7,0,no
7,1,1,1,0,0,1,1,7,0,7,7,0,no
4,2,0,0,0,0,1,1,4,0,4,4,0,no
3,0,0,0,0,0,1,1,3,0,3,3,0,no
3,1,0,0,0,0,1,1,3,0,3,3,0,no
3,2,0,0,0,0,1,1,3,0,3,3,0,no
3,0,0,0,0,0,1,1,3,0,3,3,0,no
3,1,0,0,0,0,1,1,3,0,3,3,0,no
3,1,0,0,0,0,1,1,3,0,3,3,0,no
11,2,2,1,0,1,1,1,11,0,11,11,0,no
3,1,0,0,0,0,1,1,3,0,3,3,0,no
18,1,5,2,2,2,1,1,18,0,18,18,0,no
7,0,1,1,0,1,1,1,7,0,7,7,0,no
14,1,2,1,4,1,1,1,14,0,14,14,0,no
3,2,0,0,0,0,1,1,3,0,3,3,0,no
10,3,1,1,2,0,1,1,10,0,10,10,0,no
6,1,1,1,4,1,1,1,6,0,6,6,0,no
3,0,0,0,0,0,1,1,3,0,3,3,0,no
3,0,0,0,0,0,1,1,3,0,3,3,0,no
3,0,0,0,0,0,1,1,3,0,3,3,0,no
3,0,0,0,0,0,1,1,3,0,3,3,0,no
3,0,0,0,0,0,1,1,3,0,3,3,0,no
3,0,0,0,0,0,1,1,3,0,3,3,1,no
3,0,0,0,0,0,1,1,3,0,3,3,0,no
3,1,0,0,0,0,1,1,3,0,3,3,0,no
5,0,0,0,0,1,1,1,5,0,5,5,0,no
2,0,0,0,1,0,1,1,2,0,2,2,0,no
3,1,0,0,0,0,1,1,3,0,3,3,0,no
3,0,0,0,0,0,1,1,3,0,3,3,0,no
3,0,0,0,0,0,1,1,3,0,3,3,0,no
3,1,0,0,0,0,1,1,3,0,3,3,0,no
4,2,0,0,0,0,1,1,4,0,4,4,0,no
3,0,0,0,0,0,1,1,3,0,3,3,0,no
3,2,0,0,0,0,1,1,3,0,3,3,0,no
3,0,0,0,0,0,1,1,3,0,3,3,0,no
8,2,3,2,4,3,1,1,8,0,8,8,0,no
3,1,0,0,0,0,1,1,3,0,3,3,0,no
11,1,2,2,1,3,2,2,12,1,11,6.5,1,no
0,3,0,0,1,0,1,1,0,0,0,0,0,no
3,1,0,0,0,0,1,1,3,0,3,3,0,no
4,2,0,0,0,0,1,1,4,0,4,4,0,no
4,3,0,0,0,0,1,1,4,0,4,4,0,no
4,2,0,0,0,0,1,1,4,0,4,4,0,no
45,2,18,18,0,0,5,2,45,0,25,9,0,no
3,0,0,0,0,0,1,1,3,0,3,3,0,no
3,1,0,0,0,0,1,1,3,0,3,3,0,no
3,1,0,0,0,0,1,1,3,0,3,3,0,no
3,1,0,0,0,0,1,1,3,0,3,3,0,no
4,1,0,0,0,0,2,2,5,1,4,3,0,no
8,1,2,1,2,2,1,1,8,0,8,8,0,no
3,0,0,0,0,0,1,1,3,0,3,3,0,no
3,1,0,0,0,0,1,1,3,0,3,3,0,no
3,1,0,0,0,0,1,1,3,0,3,3,0,no
3,2,0,0,0,0,1,1,3,0,3,3,0,no
3,1,0,0,0,0,1,1,3,0,3,3,0,no
3,1,0,0,0,0,1,1,3,0,3,3,0,no
3,1,0,0,0,0,1,1,3,0,3,3,0,no
3,1,0,0,0,0,1,1,3,0,3,3,0,no
3,1,0,0,0,0,1,1,3,0,3,3,0,no
3,1,0,0,0,0,1,1,3,0,3,3,0,no
3,1,0,0,0,0,1,1,3,0,3,3,0,no
3,1,0,0,0,0,1,1,3,0,3,3,0,no
3,1,0,0,0,0,1,1,3,0,3,3,0,no
3,2,0,0,0,0,1,1,3,0,3,3,0,no
3,1,0,0,0,0,1,1,3,0,3,3,0,no
3,1,0,0,0,0,1,1,3,0,3,3,0,no
3,1,0,0,0,0,1,1,3,0,3,3,0,no
3,1,0,0,0,0,1,1,3,0,3,3,0,no
3,1,0,0,0,0,1,1,3,0,3,3,0,no
3,1,0,0,0,0,1,1,3,0,3,3,0,no
3,2,0,0,0,0,1,1,3,0,3,3,0,no
2,0,0,0,0,0,1,1,2,0,2,2,1,no
3,0,0,0,0,0,1,1,3,0,3,3,1,no
2,1,0,0,1,0,1,1,2,0,2,2,1,no
60,1,0,0,84,0,14,2,64,4,32,4.857143,1,no
3,1,0,0,0,0,1,1,3,0,3,3,0,no
2,1,0,0,1,0,1,1,2,0,2,2,0,no
3,0,0,0,0,0,1,1,3,0,3,3,0,no
3,0,0,0,0,0,1,1,3,0,3,3,0,no
3,0,0,0,2,0,1,1,3,0,3,3,0,no
12,0,2,1,2,1,1,1,12,0,12,12,0,no
3,0,0,0,0,0,1,1,3,0,3,3,0,no
3,0,0,0,1,0,1,1,3,0,3,3,0,no
3,0,0,0,0,0,1,1,3,0,3,3,0,no
3,0,0,0,1,0,1,1,3,0,3,3,0,no
11,0,2,1,2,1,1,1,11,0,11,11,0,no
3,0,0,0,0,0,1,1,3,0,3,3,0,no
3,1,0,0,1,0,1,1,3,0,3,3,0,no
3,0,0,0,0,0,1,1,3,0,3,3,0,no
4,1,0,0,2,1,1,1,4,0,4,4,0,no
8,1,1,1,1,1,1,1,8,0,8,8,0,no
8,2,1,1,1,1,1,1,8,0,8,8,0,no
3,1,0,0,1,0,1,1,3,0,3,3,0,no
3,2,0,0,1,0,1,1,3,0,3,3,0,no
3,1,0,0,1,0,1,1,3,0,3,3,0,no
3,2,0,0,1,0,1,1,3,0,3,3,0,no
3,1,0,0,1,0,1,1,3,0,3,3,0,no
3,2,0,0,1,0,1,1,3,0,3,3,0,no
3,1,0,0,1,0,1,1,3,0,3,3,0,no
3,2,0,0,1,0,1,1,3,0,3,3,0,no
3,0,0,0,0,0,1,1,3,0,3,3,0,no
3,0,0,0,2,0,1,1,3,0,3,3,0,no
7,1,1,1,1,0,1,1,7,0,7,7,0,no
3,0,0,0,0,0,1,1,3,0,3,3,0,no
4,1,0,0,0,0,1,1,4,0,4,4,0,no
7,0,1,1,2,1,1,1,7,0,7,7,0,no
7,0,1,1,2,1,1,1,7,0,7,7,0,no
12,0,1,1,6,3,1,1,12,0,12,12,0,no
6,0,0,0,1,0,1,1,6,0,6,6,0,no
6,0,0,0,1,0,1,1,6,0,6,6,0,no
3,0,0,0,1,0,1,1,3,0,3,3,0,no
3,0,0,0,0,0,1,1,3,0,3,3,0,no
3,0,0,0,2,0,1,1,3,0,3,3,0,no
3,0,0,0,2,0,1,1,3,0,3,3,0,no
3,0,0,0,1,0,1,1,3,0,3,3,0,no
3,0,0,0,0,0,1,1,3,0,3,3,0,no
3,0,0,0,1,0,1,1,3,0,3,3,0,no
3,0,0,0,1,0,1,1,3,0,3,3,0,no
6,0,1,1,2,0,1,1,6,0,6,6,0,no
4,0,1,1,1,0,1,1,4,0,4,4,0,no
27,2,5,3,1,2,1,1,27,0,27,27,0,no
8,1,1,1,2,0,1,1,8,0,8,8,0,no
9,1,2,1,3,0,1,1,9,0,9,9,0,no
9,1,1,1,0,0,1,1,9,0,9,9,0,no
0,0,0,0,0,0,1,1,0,0,0,0,0,no
0,0,0,0,0,0,1,1,0,0,0,0,0,no
3,1,0,0,0,0,1,1,3,0,3,3,0,no
2,1,0,0,1,0,1,1,2,0,2,2,1,no
3,0,0,0,0,0,1,1,3,0,3,3,1,no
3,0,0,0,0,0,1,1,3,0,3,3,1,no
3,0,0,0,2,0,1,1,3,0,3,3,1,no
3,0,0,0,1,0,1,1,3,0,3,3,1,no
3,0,0,0,1,0,1,1,3,0,3,3,0,no
15,0,3,1,3,1,2,1,16,1,15,8.5,1,no
3,0,0,0,0,0,1,1,3,0,3,3,1,no
3,0,0,0,1,0,2,1,4,1,3,2.5,1,no
3,0,0,0,1,0,2,1,4,1,3,2.5,1,no
4,0,0,0,1,0,2,1,4,0,3,2,1,no
3,0,0,0,1,0,1,1,3,0,3,3,1,no
19,0,4,1,2,1,2,1,19,0,10,9.5,1,no
3,0,0,0,0,0,1,1,3,0,3,3,1,no
3,1,0,0,1,0,1,1,3,0,3,3,1,no
3,0,0,0,0,0,1,1,3,0,3,3,1,no
4,1,0,0,2,1,1,1,4,0,4,4,0,no
8,1,1,1,1,1,1,1,8,0,8,8,1,no
8,2,1,1,1,1,1,1,8,0,8,8,1,no
3,1,0,0,1,0,1,1,3,0,3,3,1,no
3,2,0,0,1,0,1,1,3,0,3,3,1,no
3,1,0,0,1,0,1,1,3,0,3,3,1,no
3,2,0,0,1,0,1,1,3,0,3,3,1,no
3,1,0,0,1,0,1,1,3,0,3,3,1,no
3,2,0,0,1,0,1,1,3,0,3,3,1,no
3,1,0,0,1,0,1,1,3,0,3,3,1,no
3,2,0,0,1,0,1,1,3,0,3,3,1,no
3,0,0,0,0,0,1,1,3,0,3,3,1,no
3,0,0,0,2,0,1,1,3,0,3,3,0,no
10,1,2,1,2,0,2,1,11,1,10,6,1,no
3,0,0,0,0,0,2,1,3,0,2,1.5,1,no
4,1,0,0,0,0,1,1,4,0,4,4,0,no
7,0,1,1,2,1,2,1,7,0,6,3.5,1,no
7,0,1,1,2,1,2,1,7,0,6,3.5,1,no
20,0,3,1,7,3,2,1,20,0,12,10,1,no
12,0,1,1,3,0,2,1,12,0,7,6,1,no
10,0,1,1,2,0,2,1,10,0,5,5,1,no
6,0,0,0,1,0,2,1,6,0,5,3,1,no
3,0,0,0,1,0,2,1,4,1,3,2.5,1,no
3,0,0,0,0,0,2,1,5,2,5,3.5,1,no
3,0,0,0,2,0,1,1,3,0,3,3,1,no
3,0,0,0,2,0,1,1,3,0,3,3,0,no
3,0,0,0,1,0,1,1,3,0,3,3,1,no
7,0,1,1,1,0,2,1,7,0,4,3.5,1,no
5,0,0,0,1,0,1,1,5,0,5,5,0,no
7,0,1,1,6,0,1,1,7,0,7,7,0,no
7,0,1,1,1,0,1,1,7,0,7,7,0,no
3,0,0,0,0,0,2,1,4,1,3,2.5,1,no
3,0,0,0,1,0,2,1,4,1,3,2.5,1,no
3,0,0,0,1,0,2,1,4,1,3,2.5,1,no
3,0,0,0,1,0,1,1,3,0,3,3,0,no
12,0,3,1,2,0,2,1,12,0,9,6,1,no
5,0,1,1,0,0,1,1,5,0,5,5,0,no
37,2,7,3,3,3,2,1,37,0,34,18.5,1,no
8,1,1,1,2,0,1,1,8,0,8,8,1,no
12,1,3,1,3,0,1,1,12,0,12,12,1,no
14,1,2,2,4,0,2,1,14,0,9,7,1,no
13,1,2,2,1,0,2,1,13,0,8,6.5,1,no
10,1,1,1,1,0,2,1,10,0,5,5,1,no
9,1,1,1,0,0,2,1,9,0,8,4.5,1,no
0,0,0,0,1,0,1,1,0,0,0,0,0,no
0,0,0,0,1,0,1,1,0,0,0,0,0,no
0,0,0,0,0,0,1,1,0,0,0,0,0,no
0,0,0,0,0,0,1,1,0,0,0,0,0,no
0,0,0,0,0,0,1,1,0,0,0,0,0,no
3,1,0,0,0,0,1,1,3,0,3,3,0,no
2,1,0,0,1,0,1,1,2,0,2,2,0,no
3,0,0,0,0,0,1,1,3,0,3,3,0,no
3,0,0,0,0,0,1,1,3,0,3,3,0,no
3,0,0,0,0,0,1,1,3,0,3,3,0,no
3,0,0,0,2,0,1,1,3,0,3,3,0,no
13,0,2,2,1,3,1,1,13,0,13,13,0,no
10,0,1,1,1,2,1,1,10,0,10,10,0,no
15,0,3,1,3,1,1,1,15,0,15,15,0,no
3,0,0,0,1,0,1,1,3,0,3,3,0,no
3,0,0,0,1,0,1,1,3,0,3,3,0,no
4,0,0,0,0,0,1,1,4,0,4,4,0,no
3,0,0,0,1,0,1,1,3,0,3,3,0,no
15,0,3,1,2,1,1,1,15,0,15,15,0,no
3,0,0,0,0,0,1,1,3,0,3,3,0,no
3,1,0,0,1,0,1,1,3,0,3,3,0,no
3,0,0,0,0,0,1,1,3,0,3,3,0,no
4,1,0,0,2,1,1,1,4,0,4,4,0,no
8,1,1,1,1,1,1,1,8,0,8,8,0,no
8,2,1,1,1,1,1,1,8,0,8,8,0,no
3,1,0,0,1,0,1,1,3,0,3,3,0,no
3,2,0,0,1,0,1,1,3,0,3,3,0,no
3,1,0,0,1,0,1,1,3,0,3,3,0,no
3,2,0,0,1,0,1,1,3,0,3,3,0,no
3,1,0,0,1,0,1,1,3,0,3,3,0,no
3,2,0,0,1,0,1,1,3,0,3,3,0,no
3,1,0,0,1,0,1,1,3,0,3,3,0,no
3,2,0,0,1,0,1,1,3,0,3,3,0,no
3,0,0,0,0,0,1,1,3,0,3,3,0,no
3,0,0,0,2,0,1,1,3,0,3,3,0,no
10,1,2,1,2,0,1,1,10,0,10,10,0,no
3,0,0,0,0,0,1,1,3,0,3,3,0,no
4,1,0,0,0,0,1,1,4,0,4,4,0,no
7,0,1,1,2,1,1,1,7,0,7,7,0,no
7,0,1,1,2,1,1,1,7,0,7,7,0,no
16,0,2,1,7,3,1,1,16,0,16,16,0,no
8,0,0,0,2,0,1,1,8,0,8,8,0,no
6,0,0,0,1,0,1,1,6,0,6,6,0,no
6,0,0,0,1,0,1,1,6,0,6,6,0,no
3,0,0,0,1,0,1,1,3,0,3,3,0,no
3,0,0,0,0,0,1,1,3,0,3,3,0,no
3,0,0,0,0,0,1,1,3,0,3,3,0,no
3,0,0,0,2,0,1,1,3,0,3,3,0,no
3,0,0,0,2,0,1,1,3,0,3,3,0,no
3,0,0,0,1,0,1,1,3,0,3,3,0,no
10,0,1,1,1,2,1,1,10,0,10,10,0,no
3,0,0,0,1,0,1,1,3,0,3,3,0,no
3,0,0,0,1,0,1,1,3,0,3,3,0,no
3,0,0,0,1,0,1,1,3,0,3,3,0,no
9,0,2,1,2,0,1,1,9,0,9,9,0,no
4,0,1,1,1,0,1,1,4,0,4,4,0,no
33,2,6,3,1,2,1,1,33,0,33,33,0,no
8,1,1,1,2,0,1,1,8,0,8,8,0,no
12,1,3,1,3,0,1,1,12,0,12,12,0,no
6,1,0,0,0,0,1,1,6,0,6,6,0,no
9,1,1,1,0,0,1,1,9,0,9,9,0,no
5,1,0,0,0,0,1,1,5,0,5,5,0,no
0,0,0,0,0,0,1,1,0,0,0,0,0,no
0,0,0,0,0,0,1,1,0,0,0,0,0,no
0,0,0,0,0,0,1,1,0,0,0,0,0,no
0,0,0,0,0,0,1,1,0,0,0,0,0,no
3,1,0,0,0,0,1,1,3,0,3,3,0,no
2,1,0,0,1,0,1,1,2,0,2,2,0,no
3,0,0,0,0,0,1,1,3,0,3,3,0,no
3,0,0,0,0,0,1,1,3,0,3,3,0,no
3,0,0,0,2,0,1,1,3,0,3,3,0,no
3,0,0,0,0,0,1,1,3,0,3,3,0,no
12,0,2,1,2,1,1,1,12,0,12,12,0,no
3,0,0,0,1,0,1,1,3,0,3,3,0,no
3,0,0,0,0,0,1,1,3,0,3,3,0,no
3,0,0,0,1,0,1,1,3,0,3,3,0,no
11,0,2,1,2,1,1,1,11,0,11,11,0,no
3,0,0,0,0,0,1,1,3,0,3,3,0,no
3,1,0,0,1,0,1,1,3,0,3,3,0,no
3,0,0,0,0,0,1,1,3,0,3,3,0,no
4,1,0,0,2,1,1,1,4,0,4,4,0,no
8,1,1,1,1,1,1,1,8,0,8,8,0,no
8,2,1,1,1,1,1,1,8,0,8,8,0,no
3,1,0,0,1,0,1,1,3,0,3,3,0,no
3,2,0,0,1,0,1,1,3,0,3,3,0,no
3,1,0,0,1,0,1,1,3,0,3,3,0,no
3,2,0,0,1,0,1,1,3,0,3,3,0,no
3,1,0,0,1,0,1,1,3,0,3,3,0,no
3,2,0,0,1,0,1,1,3,0,3,3,0,no
3,1,0,0,1,0,1,1,3,0,3,3,0,no
3,2,0,0,1,0,1,1,3,0,3,3,0,no
3,0,0,0,0,0,1,1,3,0,3,3,0,no
3,0,0,0,2,0,1,1,3,0,3,3,0,no
7,1,1,1,1,0,1,1,7,0,7,7,0,no
3,0,0,0,0,0,1,1,3,0,3,3,0,no
4,1,0,0,0,0,1,1,4,0,4,4,0,no
7,0,1,1,2,1,1,1,7,0,7,7,0,no
7,0,1,1,2,1,1,1,7,0,7,7,0,no
12,0,1,1,6,3,1,1,12,0,12,12,0,no
6,0,0,0,1,0,1,1,6,0,6,6,0,no
6,0,0,0,1,0,1,1,6,0,6,6,0,no
3,0,0,0,1,0,1,1,3,0,3,3,0,no
3,0,0,0,0,0,1,1,3,0,3,3,0,no
3,0,0,0,2,0,1,1,3,0,3,3,0,no
3,0,0,0,2,0,1,1,3,0,3,3,0,no
3,0,0,0,1,0,1,1,3,0,3,3,0,no
3,0,0,0,0,0,1,1,3,0,3,3,0,no
3,0,0,0,1,0,1,1,3,0,3,3,0,no
3,0,0,0,1,0,1,1,3,0,3,3,0,no
6,0,1,1,2,0,1,1,6,0,6,6,0,no
4,0,1,1,1,0,1,1,4,0,4,4,0,no
27,2,5,3,1,2,1,1,27,0,27,27,0,no
8,1,1,1,2,0,1,1,8,0,8,8,0,no
9,1,2,1,3,0,1,1,9,0,9,9,0,no
6,1,0,0,0,0,1,1,6,0,6,6,0,no
0,0,0,0,0,0,1,1,0,0,0,0,0,no
0,0,0,0,0,0,1,1,0,0,0,0,0,no
3,1,0,0,0,0,1,1,3,0,3,3,0,no
2,1,0,0,1,0,1,1,2,0,2,2,1,no
3,0,0,0,0,0,1,1,3,0,3,3,1,no
3,0,0,0,0,0,1,1,3,0,3,3,1,no
3,0,0,0,2,0,1,1,3,0,3,3,1,no
3,0,0,0,1,0,1,1,3,0,3,3,1,no
3,0,0,0,1,0,1,1,3,0,3,3,0,no
3,0,0,0,0,0,1,1,3,0,3,3,1,no
18,0,4,1,4,1,3,1,19,1,15,6.666667,1,no
3,0,0,0,0,0,1,1,3,0,3,3,0,no
3,0,0,0,1,0,2,1,4,1,3,2.5,1,no
3,0,0,0,1,0,2,1,4,1,3,2.5,1,no
3,0,0,0,1,0,1,1,3,0,3,3,0,no
5,0,0,0,1,0,3,1,5,0,3,1.666667,1,no
3,0,0,0,1,0,1,1,3,0,3,3,1,no
17,0,4,2,2,1,2,1,17,0,9,8.5,1,no
3,0,0,0,0,0,1,1,3,0,3,3,1,no
3,1,0,0,1,0,1,1,3,0,3,3,1,no
3,0,0,0,0,0,1,1,3,0,3,3,1,no
4,1,0,0,2,1,1,1,4,0,4,4,0,no
8,1,1,1,1,1,1,1,8,0,8,8,1,no
8,2,1,1,1,1,1,1,8,0,8,8,1,no
3,1,0,0,1,0,1,1,3,0,3,3,1,no
3,2,0,0,1,0,1,1,3,0,3,3,1,no
3,1,0,0,1,0,1,1,3,0,3,3,1,no
3,2,0,0,1,0,1,1,3,0,3,3,1,no
3,1,0,0,1,0,1,1,3,0,3,3,1,no
3,2,0,0,1,0,1,1,3,0,3,3,1,no
3,1,0,0,1,0,1,1,3,0,3,3,1,no
3,2,0,0,1,0,1,1,3,0,3,3,1,no
3,0,0,0,0,0,1,1,3,0,3,3,1,no
3,0,0,0,2,0,1,1,3,0,3,3,0,no
13,1,3,1,3,0,3,1,14,1,10,5,1,no
3,0,0,0,0,0,2,1,3,0,2,1.5,1,no
4,1,0,0,0,0,1,1,4,0,4,4,0,no
7,0,1,1,2,1,2,1,7,0,6,3.5,1,no
7,0,1,1,2,1,2,1,7,0,6,3.5,1,no
24,0,4,1,8,3,3,1,24,0,12,8,1,no
14,0,1,1,4,0,3,1,14,0,7,4.666667,1,no
10,0,1,1,2,0,2,1,10,0,5,5,1,no
6,0,0,0,1,0,2,1,6,0,5,3,1,no
6,0,0,0,1,0,1,1,6,0,6,6,0,no
3,0,0,0,1,0,2,1,4,1,3,2.5,1,no
3,0,0,0,0,0,2,1,5,2,5,3.5,1,no
3,0,0,0,2,0,1,1,3,0,3,3,1,no
3,0,0,0,2,0,1,1,3,0,3,3,0,no
3,0,0,0,1,0,1,1,3,0,3,3,1,no
7,0,1,1,1,0,2,1,7,0,4,3.5,1,no
5,0,0,0,1,0,1,1,5,0,5,5,0,no
7,0,1,1,6,0,1,1,7,0,7,7,0,no
7,0,1,1,1,0,1,1,7,0,7,7,0,no
3,0,0,0,0,0,2,1,4,1,3,2.5,1,no
3,0,0,0,0,0,1,1,3,0,3,3,0,no
3,0,0,0,1,0,2,1,4,1,3,2.5,1,no
3,0,0,0,1,0,2,1,4,1,3,2.5,1,no
3,0,0,0,1,0,1,1,3,0,3,3,0,no
3,0,0,0,1,0,1,1,3,0,3,3,0,no
11,0,3,2,1,0,2,1,11,0,8,5.5,1,no
5,0,1,1,0,0,1,1,5,0,5,5,0,no
14,1,2,2,4,0,2,1,14,0,9,7,1,no
43,2,8,3,3,3,3,1,43,0,34,14.333333,1,no
8,1,1,1,2,0,1,1,8,0,8,8,1,no
15,1,4,1,3,0,2,1,15,0,12,7.5,1,no
13,1,2,2,1,0,2,1,13,0,8,6.5,1,no
10,1,1,1,1,0,2,1,10,0,5,5,1,no
6,1,0,0,0,0,2,1,6,0,5,3,1,no
6,1,0,0,0,0,1,1,6,0,6,6,0,no
0,0,0,0,1,0,1,1,0,0,0,0,0,no
0,0,0,0,1,0,1,1,0,0,0,0,0,no
0,0,0,0,0,0,1,1,0,0,0,0,0,no
0,0,0,0,0,0,1,1,0,0,0,0,0,no
0,0,0,0,0,0,1,1,0,0,0,0,0,no
0,0,0,0,0,0,1,1,0,0,0,0,0,no
0,0,0,0,0,0,1,1,0,0,0,0,0,no
3,1,0,0,0,0,1,1,3,0,3,3,0,no
2,1,0,0,1,0,1,1,2,0,2,2,1,no
3,0,0,0,0,0,1,1,3,0,3,3,1,no
3,0,0,0,0,0,1,1,3,0,3,3,1,no
3,0,0,0,2,0,1,1,3,0,3,3,1,no
3,1,0,0,1,0,1,1,3,0,3,3,1,no
3,0,0,0,0,0,1,1,3,0,3,3,1,no
3,0,0,0,1,0,1,1,3,0,3,3,1,no
3,1,0,0,1,0,1,1,3,0,3,3,0,no
3,0,0,0,1,0,1,1,3,0,3,3,0,no
12,0,2,1,1,2,2,1,13,1,12,7,1,no
3,0,0,0,0,0,2,1,3,0,2,1.5,1,no
3,0,0,0,1,0,1,1,3,0,3,3,1,no
13,0,3,2,2,2,2,1,13,0,7,6.5,1,no
3,0,0,0,0,0,1,1,3,0,3,3,1,no
3,1,0,0,1,0,1,1,3,0,3,3,1,no
3,0,0,0,0,0,1,1,3,0,3,3,1,no
4,1,0,0,2,1,1,1,4,0,4,4,0,no
8,1,1,1,1,1,1,1,8,0,8,8,1,no
8,2,1,1,1,1,1,1,8,0,8,8,1,no
3,1,0,0,1,0,1,1,3,0,3,3,1,no
3,2,0,0,1,0,1,1,3,0,3,3,1,no
3,1,0,0,1,0,1,1,3,0,3,3,1,no
3,2,0,0,1,0,1,1,3,0,3,3,1,no
3,1,0,0,1,0,1,1,3,0,3,3,1,no
3,2,0,0,1,0,1,1,3,0,3,3,1,no
3,1,0,0,1,0,1,1,3,0,3,3,1,no
3,2,0,0,1,0,1,1,3,0,3,3,1,no
3,0,0,0,0,0,1,1,3,0,3,3,1,no
3,0,0,0,2,0,1,1,3,0,3,3,0,no
7,1,1,1,0,1,2,1,8,1,7,4.5,1,no
3,0,0,0,0,0,2,1,3,0,2,1.5,1,no
4,1,0,0,0,0,1,1,4,0,4,4,0,no
10,1,1,1,2,0,2,1,10,0,7,5,1,no
13,2,2,2,1,0,1,1,13,0,13,13,0,no
10,2,1,1,1,0,1,1,10,0,10,10,0,no
13,1,2,2,1,0,2,1,13,0,10,6.5,1,no
10,1,1,1,1,0,2,1,10,0,7,5,1,no
3,0,0,0,2,0,1,1,3,0,3,3,0,no
3,1,0,0,2,0,1,1,3,0,3,3,0,no
7,0,1,1,2,1,2,1,7,0,6,3.5,1,no
7,0,1,1,2,1,2,1,7,0,6,3.5,1,no
15,0,2,2,7,2,2,1,15,0,11,7.5,1,no
10,0,1,1,1,0,2,1,10,0,7,5,1,no
10,0,1,1,1,0,2,1,10,0,6,5,1,no
3,0,0,0,1,0,2,1,4,1,3,2.5,1,no
3,0,0,0,0,0,2,1,5,2,5,3.5,1,no
6,0,1,1,2,0,1,1,6,0,6,6,0,no
3,0,0,0,2,0,1,1,3,0,3,3,1,no
3,0,0,0,2,0,1,1,3,0,3,3,0,no
3,0,0,0,1,0,1,1,3,0,3,3,1,no
7,1,1,1,1,0,2,1,7,0,4,3.5,1,no
3,1,0,0,1,0,1,1,3,0,3,3,0,no
3,0,0,0,1,0,1,1,3,0,3,3,0,no
7,0,1,1,0,0,2,1,7,0,4,3.5,1,no
7,0,1,1,7,0,1,1,7,0,7,7,0,no
7,0,1,1,1,0,2,1,7,0,4,3.5,1,no
7,1,1,1,1,0,1,1,7,0,7,7,0,no
7,0,1,1,1,0,1,1,7,0,7,7,0,no
3,0,0,0,1,0,1,1,3,0,3,3,0,no
8,0,2,2,1,1,2,1,8,0,5,4,1,no
5,0,1,1,0,0,1,1,5,0,5,5,0,no
28,2,5,3,3,3,2,1,28,0,26,14,1,no
8,1,1,1,2,0,1,1,8,0,8,8,1,no
30,1,7,3,5,0,2,1,30,0,18,15,1,no
10,1,1,1,0,0,1,1,10,0,10,10,0,no
13,2,2,2,1,0,2,1,13,0,7,6.5,1,no
10,2,1,1,1,0,2,1,10,0,6,5,1,no
0,1,0,0,1,0,1,1,0,0,0,0,0,no
0,0,0,0,0,0,1,1,0,0,0,0,0,no
0,0,0,0,1,0,1,1,0,0,0,0,0,no
0,1,0,0,1,0,1,1,0,0,0,0,0,no
0,0,0,0,1,0,1,1,0,0,0,0,0,no
3,1,0,0,0,0,1,1,3,0,3,3,0,no
2,1,0,0,1,0,1,1,2,0,2,2,0,no
3,0,0,0,0,0,1,1,3,0,3,3,0,no
3,0,0,0,0,0,1,1,3,0,3,3,0,no
3,0,0,0,2,0,1,1,3,0,3,3,0,no
13,0,2,2,1,3,1,1,13,0,13,13,0,no
10,0,1,1,1,2,1,1,10,0,10,10,0,no
3,0,0,0,0,0,1,1,3,0,3,3,0,no
15,0,3,1,3,1,1,1,15,0,15,15,0,no
3,0,0,0,1,0,1,1,3,0,3,3,0,no
3,0,0,0,1,0,1,1,3,0,3,3,0,no
4,0,0,0,0,0,1,1,4,0,4,4,0,no
3,0,0,0,1,0,1,1,3,0,3,3,0,no
15,0,3,1,2,1,1,1,15,0,15,15,0,no
3,0,0,0,0,0,1,1,3,0,3,3,0,no
3,1,0,0,1,0,1,1,3,0,3,3,0,no
3,0,0,0,0,0,1,1,3,0,3,3,0,no
4,1,0,0,2,1,1,1,4,0,4,4,0,no
8,1,1,1,1,1,1,1,8,0,8,8,0,no
8,2,1,1,1,1,1,1,8,0,8,8,0,no
3,1,0,0,1,0,1,1,3,0,3,3,0,no
3,2,0,0,1,0,1,1,3,0,3,3,0,no
3,1,0,0,1,0,1,1,3,0,3,3,0,no
3,2,0,0,1,0,1,1,3,0,3,3,0,no
3,1,0,0,1,0,1,1,3,0,3,3,0,no
3,2,0,0,1,0,1,1,3,0,3,3,0,no
3,1,0,0,1,0,1,1,3,0,3,3,0,no
3,2,0,0,1,0,1,1,3,0,3,3,0,no
3,0,0,0,0,0,1,1,3,0,3,3,0,no
3,0,0,0,2,0,1,1,3,0,3,3,0,no
10,1,2,1,2,0,1,1,10,0,10,10,0,no
3,0,0,0,0,0,1,1,3,0,3,3,0,no
4,1,0,0,0,0,1,1,4,0,4,4,0,no
7,0,1,1,2,1,1,1,7,0,7,7,0,no
7,0,1,1,2,1,1,1,7,0,7,7,0,no
16,0,2,1,7,3,1,1,16,0,16,16,0,no
8,0,0,0,2,0,1,1,8,0,8,8,0,no
6,0,0,0,1,0,1,1,6,0,6,6,0,no
6,0,0,0,1,0,1,1,6,0,6,6,0,no
3,0,0,0,1,0,1,1,3,0,3,3,0,no
3,0,0,0,0,0,1,1,3,0,3,3,0,no
3,0,0,0,2,0,1,1,3,0,3,3,0,no
3,0,0,0,2,0,1,1,3,0,3,3,0,no
3,0,0,0,1,0,1,1,3,0,3,3,0,no
10,0,1,1,1,2,1,1,10,0,10,10,0,no
3,0,0,0,0,0,1,1,3,0,3,3,0,no
3,0,0,0,1,0,1,1,3,0,3,3,0,no
3,0,0,0,1,0,1,1,3,0,3,3,0,no
3,0,0,0,1,0,1,1,3,0,3,3,0,no
9,0,2,1,2,0,1,1,9,0,9,9,0,no
4,0,1,1,1,0,1,1,4,0,4,4,0,no
33,2,6,3,1,2,1,1,33,0,33,33,0,no
8,1,1,1,2,0,1,1,8,0,8,8,0,no
12,1,3,1,3,0,1,1,12,0,12,12,0,no
9,1,1,1,0,0,1,1,9,0,9,9,0,no
5,1,0,0,0,0,1,1,5,0,5,5,0,no
6,1,0,0,0,0,1,1,6,0,6,6,0,no
0,0,0,0,0,0,1,1,0,0,0,0,0,no
0,0,0,0,0,0,1,1,0,0,0,0,0,no
0,0,0,0,0,0,1,1,0,0,0,0,0,no
0,0,0,0,0,0,1,1,0,0,0,0,0,no
3,1,0,0,0,0,1,1,3,0,3,3,0,no
2,1,0,0,1,0,1,1,2,0,2,2,0,no
3,0,0,0,0,0,1,1,3,0,3,3,0,no
3,0,0,0,0,0,1,1,3,0,3,3,0,no
3,0,0,0,2,0,1,1,3,0,3,3,0,no
3,1,0,0,1,0,1,1,3,0,3,3,0,no
3,0,0,0,0,0,1,1,3,0,3,3,0,no
3,0,0,0,1,0,1,1,3,0,3,3,0,no
3,1,0,0,1,0,1,1,3,0,3,3,0,no
3,0,0,0,1,0,1,1,3,0,3,3,0,no
12,0,2,1,1,2,1,1,12,0,12,12,0,no
3,0,0,0,0,0,1,1,3,0,3,3,0,no
3,0,0,0,1,0,1,1,3,0,3,3,0,no
7,0,1,1,2,1,1,1,7,0,7,7,0,no
3,0,0,0,0,0,1,1,3,0,3,3,0,no
3,1,0,0,1,0,1,1,3,0,3,3,0,no
3,0,0,0,0,0,1,1,3,0,3,3,0,no
4,1,0,0,2,1,1,1,4,0,4,4,0,no
8,1,1,1,1,1,1,1,8,0,8,8,0,no
8,2,1,1,1,1,1,1,8,0,8,8,0,no
3,1,0,0,1,0,1,1,3,0,3,3,0,no
3,2,0,0,1,0,1,1,3,0,3,3,0,no
3,1,0,0,1,0,1,1,3,0,3,3,0,no
3,2,0,0,1,0,1,1,3,0,3,3,0,no
3,1,0,0,1,0,1,1,3,0,3,3,0,no
3,2,0,0,1,0,1,1,3,0,3,3,0,no
3,1,0,0,1,0,1,1,3,0,3,3,0,no
3,2,0,0,1,0,1,1,3,0,3,3,0,no
3,0,0,0,0,0,1,1,3,0,3,3,0,no
3,0,0,0,2,0,1,1,3,0,3,3,0,no
7,1,1,1,0,1,1,1,7,0,7,7,0,no
3,0,0,0,0,0,1,1,3,0,3,3,0,no
4,1,0,0,0,0,1,1,4,0,4,4,0,no
10,1,1,1,2,0,1,1,10,0,10,10,0,no
13,2,2,2,1,0,1,1,13,0,13,13,0,no
10,2,1,1,1,0,1,1,10,0,10,10,0,no
13,1,2,2,1,0,1,1,13,0,13,13,0,no
10,1,1,1,1,0,1,1,10,0,10,10,0,no
3,0,0,0,2,0,1,1,3,0,3,3,0,no
3,1,0,0,2,0,1,1,3,0,3,3,0,no
7,0,1,1,2,1,1,1,7,0,7,7,0,no
7,0,1,1,2,1,1,1,7,0,7,7,0,no
15,0,2,2,7,2,1,1,15,0,15,15,0,no
10,0,1,1,1,0,1,1,10,0,10,10,0,no
10,0,1,1,1,0,1,1,10,0,10,10,0,no
3,0,0,0,1,0,1,1,3,0,3,3,0,no
3,0,0,0,0,0,1,1,3,0,3,3,0,no
6,0,1,1,2,0,1,1,6,0,6,6,0,no
3,0,0,0,2,0,1,1,3,0,3,3,0,no
3,0,0,0,2,0,1,1,3,0,3,3,0,no
3,0,0,0,1,0,1,1,3,0,3,3,0,no
7,1,1,1,1,0,1,1,7,0,7,7,0,no
3,1,0,0,1,0,1,1,3,0,3,3,0,no
3,0,0,0,1,0,1,1,3,0,3,3,0,no
7,0,1,1,0,0,1,1,7,0,7,7,0,no
7,0,1,1,7,0,1,1,7,0,7,7,0,no
7,0,1,1,1,0,1,1,7,0,7,7,0,no
7,1,1,1,1,0,1,1,7,0,7,7,0,no
7,0,1,1,1,0,1,1,7,0,7,7,0,no
3,0,0,0,1,0,1,1,3,0,3,3,0,no
3,0,0,0,1,0,1,1,3,0,3,3,0,no
5,0,1,1,0,0,1,1,5,0,5,5,0,no
28,2,5,3,3,3,1,1,28,0,28,28,0,no
8,1,1,1,2,0,1,1,8,0,8,8,0,no
30,1,7,3,5,0,1,1,30,0,30,30,0,no
10,1,1,1,0,0,1,1,10,0,10,10,0,no
13,2,2,2,1,0,1,1,13,0,13,13,0,no
10,2,1,1,1,0,1,1,10,0,10,10,0,no
3,1,0,0,0,0,1,1,3,0,3,3,0,no
2,1,0,0,1,0,1,1,2,0,2,2,0,no
3,0,0,0,0,0,1,1,3,0,3,3,0,no
3,0,0,0,0,0,1,1,3,0,3,3,0,no
3,0,0,0,2,0,1,1,3,0,3,3,0,no
13,0,2,2,1,3,1,1,13,0,13,13,0,no
10,0,1,1,1,2,1,1,10,0,10,10,0,no
15,0,3,1,3,1,1,1,15,0,15,15,0,no
3,0,0,0,0,0,1,1,3,0,3,3,0,no
3,0,0,0,1,0,1,1,3,0,3,3,0,no
3,0,0,0,1,0,1,1,3,0,3,3,0,no
4,0,0,0,0,0,1,1,4,0,4,4,0,no
3,0,0,0,1,0,1,1,3,0,3,3,0,no
7,0,1,1,2,1,1,1,7,0,7,7,0,no
3,0,0,0,0,0,1,1,3,0,3,3,0,no
3,1,0,0,1,0,1,1,3,0,3,3,0,no
3,0,0,0,0,0,1,1,3,0,3,3,0,no
4,1,0,0,2,1,1,1,4,0,4,4,0,no
8,1,1,1,1,1,1,1,8,0,8,8,0,no
8,2,1,1,1,1,1,1,8,0,8,8,0,no
3,1,0,0,1,0,1,1,3,0,3,3,0,no
3,2,0,0,1,0,1,1,3,0,3,3,0,no
3,1,0,0,1,0,1,1,3,0,3,3,0,no
3,2,0,0,1,0,1,1,3,0,3,3,0,no
3,1,0,0,1,0,1,1,3,0,3,3,0,no
3,2,0,0,1,0,1,1,3,0,3,3,0,no
3,1,0,0,1,0,1,1,3,0,3,3,0,no
3,2,0,0,1,0,1,1,3,0,3,3,0,no
3,0,0,0,0,0,1,1,3,0,3,3,0,no
3,0,0,0,2,0,1,1,3,0,3,3,0,no
10,1,2,1,2,0,1,1,10,0,10,10,0,no
3,0,0,0,0,0,1,1,3,0,3,3,0,no
4,1,0,0,0,0,1,1,4,0,4,4,0,no
7,0,1,1,2,1,1,1,7,0,7,7,0,no
7,0,1,1,2,1,1,1,7,0,7,7,0,no
16,0,2,1,7,3,1,1,16,0,16,16,0,no
8,0,0,0,2,0,1,1,8,0,8,8,0,no
6,0,0,0,1,0,1,1,6,0,6,6,0,no
6,0,0,0,1,0,1,1,6,0,6,6,0,no
3,0,0,0,1,0,1,1,3,0,3,3,0,no
3,0,0,0,0,0,1,1,3,0,3,3,0,no
3,0,0,0,2,0,1,1,3,0,3,3,0,no
3,0,0,0,2,0,1,1,3,0,3,3,0,no
3,0,0,0,1,0,1,1,3,0,3,3,0,no
10,0,1,1,1,2,1,1,10,0,10,10,0,no
3,0,0,0,0,0,1,1,3,0,3,3,0,no
3,0,0,0,1,0,1,1,3,0,3,3,0,no
3,0,0,0,1,0,1,1,3,0,3,3,0,no
3,0,0,0,1,0,1,1,3,0,3,3,0,no
3,0,0,0,1,0,1,1,3,0,3,3,0,no
4,0,1,1,1,0,1,1,4,0,4,4,0,no
33,2,6,3,1,2,1,1,33,0,33,33,0,no
8,1,1,1,2,0,1,1,8,0,8,8,0,no
12,1,3,1,3,0,1,1,12,0,12,12,0,no
9,1,1,1,0,0,1,1,9,0,9,9,0,no
5,1,0,0,0,0,1,1,5,0,5,5,0,no
9,1,1,1,0,0,1,1,9,0,9,9,0,no
0,0,0,0,0,0,1,1,0,0,0,0,0,no
0,0,0,0,0,0,1,1,0,0,0,0,0,no
0,0,0,0,0,0,1,1,0,0,0,0,0,no
0,0,0,0,0,0,1,1,0,0,0,0,0,no
0,1,0,0,1,0,1,1,0,0,0,0,0,no
0,0,0,0,0,0,1,1,0,0,0,0,0,no
0,0,0,0,1,0,1,1,0,0,0,0,0,no
0,1,0,0,1,0,1,1,0,0,0,0,0,no
0,0,0,0,1,0,1,1,0,0,0,0,0,no
3,1,0,0,0,0,1,1,3,0,3,3,0,no
2,1,0,0,1,0,1,1,2,0,2,2,1,no
3,0,0,0,0,0,1,1,3,0,3,3,1,no
3,0,0,0,0,0,1,1,3,0,3,3,1,no
3,0,0,0,0,0,1,1,3,0,3,3,1,no
3,0,0,0,2,0,1,1,3,0,3,3,1,no
3,0,0,0,1,0,1,1,3,0,3,3,0,no
3,0,0,0,1,0,1,1,3,0,3,3,0,no
3,0,0,0,1,0,1,1,3,0,3,3,1,no
3,0,0,0,1,0,1,1,3,0,3,3,0,no
21,0,5,1,5,1,3,1,22,1,18,7.666667,1,no
3,0,0,0,0,0,1,1,3,0,3,3,1,no
3,0,0,0,1,0,2,1,4,1,3,2.5,1,no
3,0,0,0,1,0,1,1,3,0,3,3,0,no
3,0,0,0,1,0,2,1,4,1,3,2.5,1,no
3,0,0,0,1,0,2,1,4,1,3,2.5,1,no
6,0,0,0,2,0,3,1,6,0,3,2,1,no
3,0,0,0,1,0,1,1,3,0,3,3,1,no
17,0,4,2,2,1,2,1,17,0,9,8.5,1,no
3,0,0,0,0,0,1,1,3,0,3,3,1,no
3,1,0,0,1,0,1,1,3,0,3,3,1,no
3,0,0,0,0,0,1,1,3,0,3,3,1,no
4,1,0,0,2,1,1,1,4,0,4,4,0,no
8,1,1,1,1,1,1,1,8,0,8,8,1,no
8,2,1,1,1,1,1,1,8,0,8,8,1,no
3,1,0,0,1,0,1,1,3,0,3,3,1,no
3,2,0,0,1,0,1,1,3,0,3,3,1,no
3,1,0,0,1,0,1,1,3,0,3,3,1,no
3,2,0,0,1,0,1,1,3,0,3,3,1,no
3,1,0,0,1,0,1,1,3,0,3,3,1,no
3,2,0,0,1,0,1,1,3,0,3,3,1,no
3,1,0,0,1,0,1,1,3,0,3,3,1,no
3,2,0,0,1,0,1,1,3,0,3,3,1,no
3,0,0,0,0,0,1,1,3,0,3,3,1,no
3,0,0,0,2,0,1,1,3,0,3,3,0,no
16,1,4,1,4,0,3,1,17,1,13,6,1,no
3,0,0,0,0,0,2,1,3,0,2,1.5,1,no
4,1,0,0,0,0,1,1,4,0,4,4,0,no
7,0,1,1,2,1,2,1,7,0,6,3.5,1,no
7,0,1,1,2,1,2,1,7,0,6,3.5,1,no
32,0,6,1,9,3,3,1,32,0,16,10.666667,1,no
20,0,2,1,6,0,3,1,20,0,7,6.666667,1,no
6,0,0,0,1,0,2,1,6,0,5,3,1,no
10,0,1,1,2,0,1,1,10,0,10,10,0,no
10,0,1,1,2,0,2,1,10,0,5,5,1,no
6,0,0,0,1,0,2,1,6,0,5,3,1,no
3,0,0,0,1,0,2,1,4,1,3,2.5,1,no
3,0,0,0,0,0,2,1,5,2,5,3.5,1,no
3,0,0,0,0,0,2,1,4,1,3,2.5,1,no
3,0,0,0,2,0,1,1,3,0,3,3,1,no
3,0,0,0,2,0,1,1,3,0,3,3,0,no
3,0,0,0,1,0,1,1,3,0,3,3,1,no
7,0,1,1,1,0,1,1,7,0,7,7,0,no
5,0,0,0,1,0,1,1,5,0,5,5,0,no
7,0,1,1,6,0,1,1,7,0,7,7,0,no
7,0,1,1,1,0,1,1,7,0,7,7,0,no
7,0,1,1,1,0,2,1,7,0,4,3.5,1,no
5,0,0,0,1,0,1,1,5,0,5,5,0,no
7,0,1,1,6,0,1,1,7,0,7,7,0,no
7,0,1,1,1,0,1,1,7,0,7,7,0,no
3,0,0,0,0,0,2,1,4,1,3,2.5,1,no
3,0,0,0,1,0,2,1,4,1,3,2.5,1,no
3,0,0,0,1,0,1,1,3,0,3,3,0,no
3,0,0,0,1,0,2,1,4,1,3,2.5,1,no
3,0,0,0,1,0,2,1,4,1,3,2.5,1,no
3,0,0,0,1,0,1,1,3,0,3,3,0,no
11,0,3,2,1,0,2,1,11,0,8,5.5,1,no
6,0,1,1,0,0,2,1,6,0,5,3,0,no
53,2,10,3,5,4,3,1,53,0,39,17.666667,1,no
8,1,1,1,2,0,1,1,8,0,8,8,1,no
18,1,5,1,3,0,2,1,18,0,15,9,1,no
14,1,2,2,4,0,1,1,14,0,14,14,0,no
14,1,2,2,4,0,2,1,14,0,9,7,1,no
9,1,1,1,0,0,2,1,9,0,8,4.5,1,no
13,1,2,2,1,0,1,1,13,0,13,13,0,no
10,1,1,1,1,0,1,1,10,0,10,10,0,no
13,1,2,2,1,0,2,1,13,0,8,6.5,1,no
10,1,1,1,1,0,2,1,10,0,5,5,1,no
9,1,1,1,0,0,2,1,9,0,8,4.5,1,no
3,1,0,0,0,0,1,1,3,0,3,3,0,no
2,1,0,0,1,0,1,1,2,0,2,2,0,no
3,0,0,0,0,0,1,1,3,0,3,3,0,no
3,0,0,0,0,0,1,1,3,0,3,3,0,no
3,0,0,0,2,0,1,1,3,0,3,3,0,no
13,0,2,2,1,3,1,1,13,0,13,13,0,no
10,0,1,1,1,2,1,1,10,0,10,10,0,no
3,0,0,0,1,0,1,1,3,0,3,3,0,no
3,0,0,0,1,0,1,1,3,0,3,3,0,no
15,0,3,1,3,1,1,1,15,0,15,15,0,no
3,0,0,0,1,0,1,1,3,0,3,3,0,no
3,0,0,0,1,0,1,1,3,0,3,3,0,no
4,0,0,0,1,0,1,1,4,0,4,4,0,no
3,0,0,0,1,0,1,1,3,0,3,3,0,no
7,0,1,1,2,1,1,1,7,0,7,7,0,no
3,0,0,0,0,0,1,1,3,0,3,3,0,no
3,1,0,0,1,0,1,1,3,0,3,3,0,no
3,0,0,0,0,0,1,1,3,0,3,3,0,no
4,1,0,0,2,1,1,1,4,0,4,4,0,no
8,1,1,1,1,1,1,1,8,0,8,8,0,no
8,2,1,1,1,1,1,1,8,0,8,8,0,no
3,1,0,0,1,0,1,1,3,0,3,3,0,no
3,2,0,0,1,0,1,1,3,0,3,3,0,no
3,1,0,0,1,0,1,1,3,0,3,3,0,no
3,2,0,0,1,0,1,1,3,0,3,3,0,no
3,1,0,0,1,0,1,1,3,0,3,3,0,no
3,2,0,0,1,0,1,1,3,0,3,3,0,no
3,1,0,0,1,0,1,1,3,0,3,3,0,no
3,2,0,0,1,0,1,1,3,0,3,3,0,no
3,0,0,0,0,0,1,1,3,0,3,3,0,no
3,0,0,0,2,0,1,1,3,0,3,3,0,no
10,1,2,1,2,0,1,1,10,0,10,10,0,no
3,0,0,0,0,0,1,1,3,0,3,3,0,no
4,1,0,0,0,0,1,1,4,0,4,4,0,no
7,0,1,1,2,1,1,1,7,0,7,7,0,no
7,0,1,1,2,1,1,1,7,0,7,7,0,no
20,0,3,1,7,3,1,1,20,0,20,20,0,no
12,0,1,1,3,0,1,1,12,0,12,12,0,no
6,0,0,0,1,0,1,1,6,0,6,6,0,no
10,0,1,1,2,0,1,1,10,0,10,10,0,no
3,0,0,0,1,0,1,1,3,0,3,3,0,no
3,0,0,0,0,0,1,1,3,0,3,3,0,no
3,0,0,0,2,0,1,1,3,0,3,3,0,no
3,0,0,0,2,0,1,1,3,0,3,3,0,no
3,0,0,0,1,0,1,1,3,0,3,3,0,no
10,0,1,1,1,2,1,1,10,0,10,10,0,no
7,0,1,1,1,0,1,1,7,0,7,7,0,no
5,0,0,0,1,0,1,1,5,0,5,5,0,no
7,0,1,1,6,0,1,1,7,0,7,7,0,no
7,0,1,1,1,0,1,1,7,0,7,7,0,no
3,0,0,0,1,0,1,1,3,0,3,3,0,no
3,0,0,0,1,0,1,1,3,0,3,3,0,no
3,0,0,0,1,0,1,1,3,0,3,3,0,no
3,0,0,0,1,0,1,1,3,0,3,3,0,no
5,0,1,1,0,0,1,1,5,0,5,5,0,no
37,2,7,3,3,3,1,1,37,0,37,37,0,no
8,1,1,1,2,0,1,1,8,0,8,8,0,no
12,1,3,1,3,0,1,1,12,0,12,12,0,no
14,1,2,2,4,0,1,1,14,0,14,14,0,no
9,1,1,1,0,0,1,1,9,0,9,9,0,no
5,1,0,0,0,0,1,1,5,0,5,5,0,no
13,1,2,2,1,0,1,1,13,0,13,13,0,no
10,1,1,1,1,0,1,1,10,0,10,10,0,no
0,0,0,0,0,0,1,1,0,0,0,0,0,no
0,0,0,0,1,0,1,1,0,0,0,0,0,no
0,0,0,0,1,0,1,1,0,0,0,0,0,no
0,0,0,0,0,0,1,1,0,0,0,0,0,no
0,0,0,0,0,0,1,1,0,0,0,0,0,no
0,0,0,0,0,0,1,1,0,0,0,0,0,no
0,0,0,0,1,0,1,1,0,0,0,0,0,no
0,0,0,0,1,0,1,1,0,0,0,0,0,no
0,0,0,0,1,0,1,1,0,0,0,0,0,no
0,0,0,0,1,0,1,1,0,0,0,0,0,no
0,0,0,0,0,0,1,1,0,0,0,0,0,no
0,0,0,0,0,0,1,1,0,0,0,0,0,no
0,0,0,0,0,0,1,1,0,0,0,0,0,no
0,0,0,0,0,0,1,1,0,0,0,0,0,no
0,0,0,0,0,0,1,1,0,0,0,0,0,no
3,1,0,0,0,0,1,1,3,0,3,3,0,no
2,1,0,0,1,0,1,1,2,0,2,2,1,no
3,0,0,0,0,0,1,1,3,0,3,3,1,no
3,0,0,0,0,0,1,1,3,0,3,3,1,no
3,0,0,0,2,0,1,1,3,0,3,3,1,no
3,0,0,0,0,0,1,1,3,0,3,3,1,no
3,1,0,0,1,0,1,1,3,0,3,3,1,no
3,0,0,0,0,0,1,1,3,0,3,3,1,no
3,0,0,0,1,0,1,1,3,0,3,3,1,no
3,1,0,0,1,0,1,1,3,0,3,3,0,no
3,0,0,0,1,0,1,1,3,0,3,3,0,no
15,0,3,1,2,2,2,1,16,1,15,8.5,1,no
3,0,0,0,1,0,2,1,4,1,3,2.5,1,no
4,0,0,0,0,0,2,1,4,0,2,2,1,no
3,0,0,0,1,0,1,1,3,0,3,3,1,no
13,0,3,2,2,2,2,1,13,0,7,6.5,1,no
3,0,0,0,0,0,1,1,3,0,3,3,1,no
3,1,0,0,1,0,1,1,3,0,3,3,1,no
3,0,0,0,0,0,1,1,3,0,3,3,1,no
4,1,0,0,2,1,1,1,4,0,4,4,0,no
8,1,1,1,1,1,1,1,8,0,8,8,1,no
8,2,1,1,1,1,1,1,8,0,8,8,1,no
3,1,0,0,1,0,1,1,3,0,3,3,1,no
3,2,0,0,1,0,1,1,3,0,3,3,1,no
3,1,0,0,1,0,1,1,3,0,3,3,1,no
3,2,0,0,1,0,1,1,3,0,3,3,1,no
3,1,0,0,1,0,1,1,3,0,3,3,1,no
3,2,0,0,1,0,1,1,3,0,3,3,1,no
3,1,0,0,1,0,1,1,3,0,3,3,1,no
3,2,0,0,1,0,1,1,3,0,3,3,1,no
3,0,0,0,0,0,1,1,3,0,3,3,1,no
3,0,0,0,2,0,1,1,3,0,3,3,0,no
10,1,2,1,1,1,2,1,11,1,10,6,1,no
3,0,0,0,0,0,2,1,3,0,2,1.5,1,no
4,1,0,0,0,0,1,1,4,0,4,4,0,no
10,1,1,1,2,0,2,1,10,0,7,5,1,no
13,2,2,2,1,0,1,1,13,0,13,13,0,no
10,2,1,1,1,0,1,1,10,0,10,10,0,no
13,1,2,2,1,0,2,1,13,0,10,6.5,1,no
10,1,1,1,1,0,2,1,10,0,7,5,1,no
3,0,0,0,2,0,1,1,3,0,3,3,0,no
3,1,0,0,2,0,1,1,3,0,3,3,0,no
7,0,1,1,2,1,2,1,7,0,6,3.5,1,no
7,0,1,1,2,1,2,1,7,0,6,3.5,1,no
21,0,3,2,8,3,2,1,21,0,11,10.5,1,no
12,0,1,1,2,0,2,1,12,0,7,6,1,no
6,0,0,0,1,0,2,1,6,0,5,3,1,no
10,0,1,1,1,0,2,1,10,0,6,5,1,no
3,0,0,0,1,0,2,1,4,1,3,2.5,1,no
3,0,0,0,0,0,2,1,5,2,5,3.5,1,no
6,0,1,1,2,0,1,1,6,0,6,6,0,no
3,0,0,0,2,0,1,1,3,0,3,3,1,no
3,0,0,0,2,0,1,1,3,0,3,3,0,no
3,0,0,0,1,0,1,1,3,0,3,3,1,no
3,0,0,0,0,0,2,1,4,1,3,2.5,1,no
7,1,1,1,1,0,2,1,7,0,4,3.5,1,no
3,1,0,0,1,0,1,1,3,0,3,3,0,no
3,0,0,0,1,0,1,1,3,0,3,3,0,no
7,0,1,1,0,0,2,1,7,0,4,3.5,1,no
7,0,1,1,7,0,1,1,7,0,7,7,0,no
7,0,1,1,1,0,2,1,7,0,4,3.5,1,no
7,1,1,1,1,0,1,1,7,0,7,7,0,no
7,0,1,1,1,0,1,1,7,0,7,7,0,no
3,0,0,0,1,0,2,1,4,1,3,2.5,1,no
3,0,0,0,1,0,1,1,3,0,3,3,0,no
8,0,2,2,1,1,2,1,8,0,5,4,1,no
5,0,1,1,0,0,1,1,5,0,5,5,0,no
34,2,6,3,3,3,2,1,34,0,31,17,1,no
8,1,1,1,2,0,1,1,8,0,8,8,1,no
33,1,8,3,5,0,2,1,33,0,18,16.5,1,no
10,1,1,1,0,0,1,1,10,0,10,10,0,no
6,1,0,0,0,0,2,1,6,0,5,3,1,no
13,2,2,2,1,0,2,1,13,0,7,6.5,1,no
10,2,1,1,1,0,2,1,10,0,6,5,1,no
0,0,0,0,0,0,1,1,0,0,0,0,0,no
0,1,0,0,1,0,1,1,0,0,0,0,0,no
0,0,0,0,0,0,1,1,0,0,0,0,0,no
0,0,0,0,1,0,1,1,0,0,0,0,0,no
0,1,0,0,1,0,1,1,0,0,0,0,0,no
0,0,0,0,1,0,1,1,0,0,0,0,0,no
0,0,0,0,0,0,1,1,0,0,0,0,0,no
4,2,0,0,1,0,1,1,4,0,4,4,1,no
3,0,0,0,1,0,1,1,3,0,3,3,1,no
3,0,0,0,0,0,1,1,3,0,3,3,1,no
3,0,0,0,0,0,1,1,3,0,3,3,1,no
3,0,0,0,0,0,1,1,3,0,3,3,1,no
3,0,0,0,0,0,1,1,3,0,3,3,1,no
6,1,1,1,1,0,1,1,6,0,6,6,1,no
20,1,8,1,0,0,2,1,20,0,18,10,1,no
3,1,0,0,0,0,1,1,3,0,3,3,1,no
4,2,0,0,1,0,1,1,4,0,4,4,1,no
3,0,0,0,1,0,1,1,3,0,3,3,1,no
3,0,0,0,0,0,1,1,3,0,3,3,1,no
3,0,0,0,0,0,1,1,3,0,3,3,1,no
3,0,0,0,0,0,1,1,3,0,3,3,1,no
3,0,0,0,0,0,1,1,3,0,3,3,1,no
6,1,1,1,1,0,1,1,6,0,6,6,1,no
8,1,2,1,0,0,1,1,8,0,8,8,1,no
3,1,0,0,0,0,1,1,3,0,3,3,1,no
3,1,0,0,0,0,1,1,3,0,3,3,0,no
2,1,0,0,1,0,1,1,2,0,2,2,1,no
3,0,0,0,1,0,1,1,3,0,3,3,0,no
3,0,0,0,1,0,1,1,3,0,3,3,0,no
3,0,0,0,1,0,1,1,3,0,3,3,1,no
3,0,0,0,1,0,1,1,3,0,3,3,0,no
3,0,0,0,0,0,1,1,3,0,3,3,1,no
3,0,0,0,0,0,1,1,3,0,3,3,1,no
3,0,0,0,2,0,1,1,3,0,3,3,1,no
3,0,0,0,1,0,1,1,3,0,3,3,1,no
3,0,0,0,1,0,1,1,3,0,3,3,1,no
3,0,0,0,1,0,1,1,3,0,3,3,0,no
53,0,14,1,13,3,3,1,54,1,50,18.333333,1,no
3,0,0,0,0,0,1,1,3,0,3,3,1,no
3,0,0,0,1,0,1,1,3,0,3,3,1,no
3,0,0,0,1,0,1,1,3,0,3,3,0,no
3,0,0,0,1,0,1,1,3,0,3,3,1,no
3,0,0,0,1,0,1,1,3,0,3,3,0,no
3,0,0,0,1,0,1,1,3,0,3,3,1,no
3,0,0,0,1,0,1,1,3,0,3,3,0,no
3,0,0,0,0,0,1,1,3,0,3,3,1,no
3,1,0,0,0,0,1,1,3,0,3,3,1,no
3,0,0,0,0,0,1,1,3,0,3,3,1,no
3,0,0,0,0,0,1,1,3,0,3,3,1,no
3,0,0,0,0,0,1,1,3,0,3,3,1,no
3,0,0,0,1,0,1,1,3,0,3,3,1,no
3,0,0,0,1,0,1,1,3,0,3,3,1,no
3,0,0,0,1,0,1,1,3,0,3,3,0,no
3,0,0,0,1,0,1,1,3,0,3,3,0,no
3,0,0,0,1,0,2,1,4,1,3,2.5,1,no
3,0,0,0,1,0,2,1,4,1,3,2.5,1,no
3,0,0,0,1,0,2,1,4,1,3,2.5,1,no
3,0,0,0,1,0,2,1,4,1,3,2.5,1,no
3,0,0,0,1,0,2,1,4,1,3,2.5,1,no
3,0,0,0,1,0,2,1,4,1,3,2.5,1,no
3,0,0,0,1,0,2,1,4,1,3,2.5,1,no
3,0,0,0,1,0,2,1,4,1,3,2.5,1,no
3,0,0,0,1,0,2,1,4,1,3,2.5,1,no
3,0,0,0,1,0,2,1,4,1,3,2.5,1,no
3,0,0,0,1,0,2,1,4,1,3,2.5,1,no
16,0,0,0,10,0,3,1,16,0,10,5.333333,1,no
3,0,0,0,1,0,1,1,3,0,3,3,1,no
65,0,19,2,2,1,3,1,65,0,35,21.666667,1,no
3,0,0,0,0,0,1,1,3,0,3,3,1,no
3,1,0,0,1,0,1,1,3,0,3,3,1,no
3,0,0,0,0,0,1,1,3,0,3,3,1,no
4,1,0,0,2,1,1,1,4,0,4,4,0,no
8,1,1,1,1,1,1,1,8,0,8,8,1,no
8,2,1,1,1,1,1,1,8,0,8,8,1,no
3,1,0,0,1,0,1,1,3,0,3,3,1,no
3,2,0,0,1,0,1,1,3,0,3,3,1,no
3,1,0,0,1,0,1,1,3,0,3,3,1,no
3,2,0,0,1,0,1,1,3,0,3,3,1,no
3,1,0,0,1,0,1,1,3,0,3,3,1,no
3,2,0,0,1,0,1,1,3,0,3,3,1,no
3,1,0,0,1,0,1,1,3,0,3,3,1,no
3,2,0,0,1,0,1,1,3,0,3,3,1,no
3,0,0,0,0,0,1,1,3,0,3,3,1,no
3,0,0,0,2,0,1,1,3,0,3,3,0,no
43,1,13,1,12,1,3,1,44,1,40,15,1,no
3,0,0,0,0,0,2,1,3,0,2,1.5,1,no
4,1,0,0,0,0,1,1,4,0,4,4,0,no
6,1,0,0,1,0,2,1,7,1,7,4,1,no
9,1,1,1,0,0,2,1,10,1,10,5.5,1,no
7,0,1,1,2,1,2,1,7,0,6,3.5,1,no
7,0,1,1,2,1,2,1,7,0,6,3.5,1,no
89,0,20,1,19,3,3,1,89,0,70,29.666667,1,no
59,0,7,1,23,0,3,1,59,0,46,19.666667,1,no
10,0,1,1,2,0,1,1,10,0,10,10,0,no
10,0,1,1,2,0,2,1,10,0,5,5,1,no
6,0,0,0,2,0,2,1,6,0,5,3,1,no
10,0,1,1,2,0,2,1,10,0,5,5,1,no
6,0,0,0,1,0,2,1,6,0,5,3,1,no
10,0,1,1,2,0,2,1,10,0,5,5,1,no
10,0,1,1,2,0,2,1,10,0,5,5,1,no
10,0,1,1,2,0,2,1,10,0,5,5,1,no
6,0,0,0,1,0,2,1,6,0,5,3,1,no
7,0,0,0,2,0,2,1,7,0,4,3.5,1,no
6,0,0,0,1,0,2,1,6,0,5,3,1,no
6,0,0,0,2,0,2,1,6,0,5,3,1,no
10,0,1,1,2,0,2,1,10,0,5,5,1,no
3,0,0,0,1,0,2,1,4,1,3,2.5,1,no
3,0,0,0,0,0,2,1,5,2,5,3.5,1,no
6,0,1,1,1,0,1,1,6,0,6,6,0,no
7,0,1,1,1,0,1,1,7,0,7,7,0,no
5,0,0,0,1,0,1,1,5,0,5,5,0,no
7,0,1,1,6,0,1,1,7,0,7,7,0,no
7,0,1,1,1,0,1,1,7,0,7,7,0,no
7,0,1,1,1,0,2,1,7,0,4,3.5,1,no
5,0,0,0,1,0,1,1,5,0,5,5,0,no
7,0,1,1,6,0,1,1,7,0,7,7,0,no
7,0,1,1,1,0,1,1,7,0,7,7,0,no
3,0,0,0,2,0,1,1,3,0,3,3,1,no
3,0,0,0,2,0,1,1,3,0,3,3,0,no
3,0,0,0,1,0,1,1,3,0,3,3,1,no
3,0,0,0,1,0,2,1,4,1,3,2.5,1,no
7,0,1,1,1,0,2,1,7,0,4,3.5,1,no
5,0,0,0,1,0,1,1,5,0,5,5,0,no
7,0,1,1,6,0,1,1,7,0,7,7,0,no
7,0,1,1,1,0,1,1,7,0,7,7,0,no
3,0,0,0,0,0,2,1,4,1,3,2.5,1,no
7,0,1,1,1,0,2,1,7,0,4,3.5,1,no
5,0,0,0,1,0,1,1,5,0,5,5,0,no
7,0,1,1,6,0,1,1,7,0,7,7,0,no
7,0,1,1,1,0,1,1,7,0,7,7,0,no
7,0,1,1,1,0,2,1,7,0,4,3.5,1,no
5,0,0,0,1,0,1,1,5,0,5,5,0,no
7,0,1,1,6,0,1,1,7,0,7,7,0,no
7,0,1,1,1,0,1,1,7,0,7,7,0,no
7,0,1,1,1,0,2,1,7,0,4,3.5,1,no
5,0,0,0,1,0,1,1,5,0,5,5,0,no
7,0,1,1,6,0,1,1,7,0,7,7,0,no
7,0,1,1,1,0,1,1,7,0,7,7,0,no
3,0,0,0,0,0,2,1,4,1,3,2.5,1,no
3,1,0,0,0,0,2,1,4,1,3,2.5,1,no
3,0,0,0,0,0,2,1,4,1,3,2.5,1,no
3,0,0,0,0,0,2,1,4,1,3,2.5,1,no
3,0,0,0,0,0,2,1,4,1,3,2.5,1,no
3,0,0,0,1,0,2,1,4,1,3,2.5,1,no
7,0,1,1,1,0,2,1,7,0,4,3.5,1,no
5,0,0,0,1,0,1,1,5,0,5,5,0,no
7,0,1,1,6,0,1,1,7,0,7,7,0,no
7,0,1,1,1,0,1,1,7,0,7,7,0,no
3,0,0,0,1,0,1,1,3,0,3,3,0,no
3,0,0,0,1,0,2,1,4,1,3,2.5,1,no
3,0,0,0,1,0,2,1,4,1,3,2.5,1,no
3,0,0,0,1,0,2,1,4,1,3,2.5,1,no
3,0,0,0,1,0,2,1,4,1,3,2.5,1,no
3,0,0,0,1,0,2,1,4,1,3,2.5,1,no
3,0,0,0,1,0,2,1,4,1,3,2.5,1,no
3,0,0,0,1,0,2,1,4,1,3,2.5,1,no
3,0,0,0,1,0,2,1,4,1,3,2.5,1,no
3,0,0,0,1,0,2,1,4,1,3,2.5,1,no
3,0,0,0,1,0,2,1,4,1,3,2.5,1,no
3,0,0,0,1,0,2,1,4,1,3,2.5,1,no
3,0,0,0,1,0,1,1,3,0,3,3,0,no
50,0,18,2,1,0,3,1,50,0,42,16.666667,1,no
11,0,1,1,0,0,2,1,11,0,10,5.5,0,no
14,1,2,2,4,0,1,1,14,0,14,14,0,no
14,1,2,2,4,0,2,1,14,0,9,7,1,no
139,2,26,3,19,13,3,1,139,0,121,46.333333,1,no
8,1,1,1,2,0,1,1,8,0,8,8,1,no
52,1,15,2,4,0,3,1,52,0,45,17.333333,1,no
14,1,2,2,4,0,2,1,14,0,9,7,1,no
14,1,2,2,4,0,2,1,14,0,9,7,1,no
14,1,2,2,4,0,2,1,14,0,9,7,1,no
14,1,2,2,4,0,2,1,14,0,9,7,1,no
14,1,2,2,4,0,2,1,14,0,9,7,1,no
13,1,2,2,1,0,1,1,13,0,13,13,0,no
10,1,1,1,1,0,1,1,10,0,10,10,0,no
13,1,2,2,1,0,2,1,13,0,8,6.5,1,no
10,1,1,1,1,0,2,1,10,0,5,5,1,no
9,1,1,1,1,0,2,1,9,0,8,4.5,1,no
13,1,2,2,1,0,2,1,13,0,8,6.5,1,no
10,1,1,1,1,0,2,1,10,0,5,5,1,no
6,1,0,0,0,0,2,1,6,0,5,3,1,no
13,1,2,2,1,0,2,1,13,0,8,6.5,1,no
10,1,1,1,1,0,2,1,10,0,5,5,1,no
13,1,2,2,1,0,2,1,13,0,8,6.5,1,no
10,1,1,1,1,0,2,1,10,0,5,5,1,no
13,1,2,2,1,0,2,1,13,0,8,6.5,1,no
10,1,1,1,1,0,2,1,10,0,5,5,1,no
9,1,1,1,0,0,2,1,9,0,8,4.5,1,no
9,2,1,1,0,0,2,1,9,0,7,4.5,1,no
6,1,0,0,0,0,2,1,6,0,5,3,1,no
9,1,1,1,1,0,2,1,9,0,8,4.5,1,no
13,1,2,2,1,0,2,1,13,0,8,6.5,1,no
10,1,1,1,1,0,2,1,10,0,5,5,1,no
0,0,0,0,1,0,1,1,0,0,0,0,0,no
0,0,0,0,1,0,1,1,0,0,0,0,0,no
0,0,0,0,1,0,1,1,0,0,0,0,0,no
0,0,0,0,1,0,1,1,0,0,0,0,0,no
0,0,0,0,1,0,1,1,0,0,0,0,0,no
0,0,0,0,1,0,1,1,0,0,0,0,0,no
0,0,0,0,1,0,1,1,0,0,0,0,0,no
0,0,0,0,0,0,1,1,0,0,0,0,0,no
0,0,0,0,1,0,1,1,0,0,0,0,0,no
0,0,0,0,1,0,1,1,0,0,0,0,0,no
0,0,0,0,1,0,1,1,0,0,0,0,0,no
0,0,0,0,1,0,1,1,0,0,0,0,0,no
0,0,0,0,1,0,1,1,0,0,0,0,0,no
0,0,0,0,1,0,1,1,0,0,0,0,0,no
0,0,0,0,0,0,1,1,0,0,0,0,0,no
0,1,0,0,0,0,1,1,0,0,0,0,0,no
0,0,0,0,0,0,1,1,0,0,0,0,0,no
0,0,0,0,0,0,1,1,0,0,0,0,0,no
0,0,0,0,0,0,1,1,0,0,0,0,0,no
0,0,0,0,1,0,1,1,0,0,0,0,0,no
0,0,0,0,1,0,1,1,0,0,0,0,0,no
0,0,0,0,1,0,1,1,0,0,0,0,0,no
0,0,0,0,0,0,1,1,0,0,0,0,0,no
0,0,0,0,0,0,1,1,0,0,0,0,0,no
0,0,0,0,0,0,1,1,0,0,0,0,0,no
0,0,0,0,0,0,1,1,0,0,0,0,0,no
0,0,0,0,0,0,1,1,0,0,0,0,0,no
0,0,0,0,0,0,1,1,0,0,0,0,0,no
0,0,0,0,0,0,1,1,0,0,0,0,0,no
0,0,0,0,0,0,1,1,0,0,0,0,0,no
0,0,0,0,0,0,1,1,0,0,0,0,0,no
0,0,0,0,0,0,1,1,0,0,0,0,0,no
0,0,0,0,0,0,1,1,0,0,0,0,0,no
0,0,0,0,0,0,1,1,0,0,0,0,0,no
3,1,0,0,0,0,1,1,3,0,3,3,0,no
2,1,0,0,1,0,1,1,2,0,2,2,1,no
3,0,0,0,0,0,1,1,3,0,3,3,1,no
3,0,0,0,0,0,1,1,3,0,3,3,1,no
3,0,0,0,2,0,1,1,3,0,3,3,1,no
3,0,0,0,1,0,1,1,3,0,3,3,1,no
3,0,0,0,1,0,1,1,3,0,3,3,0,no
3,0,0,0,1,0,1,1,3,0,3,3,1,no
3,0,0,0,1,0,1,1,3,0,3,3,0,no
3,0,0,0,1,0,1,1,3,0,3,3,0,no
33,0,9,1,9,1,3,2,34,1,30,11.666667,1,no
3,0,0,0,1,0,1,1,3,0,3,3,1,no
13,0,2,2,1,3,2,1,13,0,10,6.5,1,no
10,0,1,1,1,2,1,1,10,0,10,10,0,no
3,0,0,0,0,0,1,1,3,0,3,3,1,no
3,0,0,0,0,0,1,1,3,0,3,3,1,no
3,0,0,0,0,0,1,1,3,0,3,3,1,no
3,0,0,0,1,0,2,1,4,1,3,2.5,1,no
3,0,0,0,1,0,2,1,4,1,3,2.5,1,no
3,0,0,0,1,0,1,1,3,0,3,3,0,no
3,0,0,0,1,0,2,1,4,1,3,2.5,1,no
3,0,0,0,1,0,2,1,4,1,3,2.5,1,no
3,0,0,0,1,0,2,1,4,1,3,2.5,1,no
3,0,0,0,1,0,2,1,4,1,3,2.5,1,no
3,0,0,0,1,0,2,1,4,1,3,2.5,1,no
10,0,0,0,4,0,3,2,10,0,5,3.333333,1,no
3,0,0,0,1,0,1,1,3,0,3,3,1,no
31,0,8,2,2,1,3,2,31,0,13,10.333333,1,no
3,0,0,0,0,0,1,1,3,0,3,3,1,no
3,1,0,0,1,0,1,1,3,0,3,3,1,no
3,0,0,0,0,0,1,1,3,0,3,3,1,no
4,1,0,0,2,1,1,1,4,0,4,4,0,no
8,1,1,1,1,1,1,1,8,0,8,8,1,no
8,2,1,1,1,1,1,1,8,0,8,8,1,no
3,1,0,0,1,0,1,1,3,0,3,3,1,no
3,2,0,0,1,0,1,1,3,0,3,3,1,no
3,1,0,0,1,0,1,1,3,0,3,3,1,no
3,2,0,0,1,0,1,1,3,0,3,3,1,no
3,1,0,0,1,0,1,1,3,0,3,3,1,no
3,2,0,0,1,0,1,1,3,0,3,3,1,no
3,1,0,0,1,0,1,1,3,0,3,3,1,no
3,2,0,0,1,0,1,1,3,0,3,3,1,no
3,0,0,0,0,0,1,1,3,0,3,3,1,no
3,0,0,0,2,0,1,1,3,0,3,3,0,no
28,1,8,1,8,0,3,2,29,1,25,10,1,no
3,0,0,0,0,0,2,1,3,0,2,1.5,1,no
4,1,0,0,0,0,1,1,4,0,4,4,0,no
7,0,1,1,2,1,2,1,7,0,6,3.5,1,no
7,0,1,1,2,1,2,1,7,0,6,3.5,1,no
48,0,10,1,13,3,3,2,48,0,32,16,1,no
28,0,2,1,12,0,3,2,28,0,15,9.333333,1,no
10,0,1,1,2,0,2,1,10,0,5,5,1,no
6,0,0,0,2,0,2,1,6,0,5,3,1,no
10,0,1,1,2,0,1,1,10,0,10,10,0,no
6,0,0,0,2,0,2,1,6,0,5,3,1,no
6,0,0,0,1,0,2,1,6,0,5,3,1,no
6,0,0,0,1,0,2,1,6,0,5,3,1,no
6,0,0,0,1,0,2,1,6,0,5,3,1,no
6,0,0,0,1,0,2,1,6,0,5,3,1,no
3,0,0,0,1,0,2,1,4,1,3,2.5,1,no
3,0,0,0,0,0,2,1,5,2,5,3.5,1,no
3,0,0,0,2,0,1,1,3,0,3,3,1,no
3,0,0,0,2,0,1,1,3,0,3,3,0,no
3,0,0,0,1,0,1,1,3,0,3,3,1,no
7,0,1,1,1,0,2,1,7,0,4,3.5,1,no
5,0,0,0,1,0,1,1,5,0,5,5,0,no
7,0,1,1,6,0,1,1,7,0,7,7,0,no
7,0,1,1,1,0,1,1,7,0,7,7,0,no
3,0,0,0,1,0,2,1,4,1,3,2.5,1,no
7,0,1,1,1,0,1,1,7,0,7,7,0,no
5,0,0,0,1,0,1,1,5,0,5,5,0,no
7,0,1,1,6,0,1,1,7,0,7,7,0,no
7,0,1,1,1,0,1,1,7,0,7,7,0,no
3,0,0,0,1,0,2,1,4,1,3,2.5,1,no
10,0,1,1,1,2,2,1,10,0,7,5,1,no
3,0,0,0,0,0,2,1,4,1,3,2.5,1,no
3,0,0,0,0,0,2,1,4,1,3,2.5,1,no
3,0,0,0,0,0,2,1,4,1,3,2.5,1,no
3,0,0,0,1,0,2,1,4,1,3,2.5,1,no
3,0,0,0,1,0,2,1,4,1,3,2.5,1,no
3,0,0,0,1,0,1,1,3,0,3,3,0,no
3,0,0,0,1,0,2,1,4,1,3,2.5,1,no
3,0,0,0,1,0,2,1,4,1,3,2.5,1,no
3,0,0,0,1,0,2,1,4,1,3,2.5,1,no
3,0,0,0,1,0,2,1,4,1,3,2.5,1,no
3,0,0,0,1,0,2,1,4,1,3,2.5,1,no
3,0,0,0,1,0,1,1,3,0,3,3,0,no
22,0,7,2,1,0,3,2,22,0,14,7.333333,1,no
6,0,1,1,0,0,2,2,6,0,5,3,0,no
89,2,16,3,9,8,3,2,89,0,71,29.666667,1,no
8,1,1,1,2,0,1,1,8,0,8,8,1,no
30,1,9,1,3,0,2,2,30,0,27,15,1,no
14,1,2,2,4,0,2,1,14,0,9,7,1,no
14,1,2,2,4,0,1,1,14,0,14,14,0,no
13,1,2,2,1,0,2,1,13,0,8,6.5,1,no
10,1,1,1,1,0,2,1,10,0,5,5,1,no
9,1,1,1,1,0,2,1,9,0,8,4.5,1,no
13,1,2,2,1,0,1,1,13,0,13,13,0,no
10,1,1,1,1,0,1,1,10,0,10,10,0,no
9,1,1,1,1,0,2,1,9,0,8,4.5,1,no
9,1,1,1,0,0,1,1,9,0,9,9,0,no
5,1,0,0,0,0,1,1,5,0,5,5,0,no
9,1,1,1,0,0,2,1,9,0,8,4.5,1,no
9,1,1,1,0,0,2,1,9,0,8,4.5,1,no
6,1,0,0,0,0,2,1,6,0,5,3,1,no
0,0,0,0,1,0,1,1,0,0,0,0,0,no
0,0,0,0,1,0,1,1,0,0,0,0,0,no
0,0,0,0,1,0,1,1,0,0,0,0,0,no
0,0,0,0,1,0,1,1,0,0,0,0,0,no
0,0,0,0,1,0,1,1,0,0,0,0,0,no
0,0,0,0,1,0,1,1,0,0,0,0,0,no
0,0,0,0,0,0,1,1,0,0,0,0,0,no
0,0,0,0,0,0,1,1,0,0,0,0,0,no
0,0,0,0,0,0,1,1,0,0,0,0,0,no
0,0,0,0,0,0,1,1,0,0,0,0,0,no
0,0,0,0,0,0,1,1,0,0,0,0,0,no
0,0,0,0,0,0,1,1,0,0,0,0,0,no
0,0,0,0,0,0,1,1,0,0,0,0,0,no
0,0,0,0,0,0,1,1,0,0,0,0,0,no
0,0,0,0,0,0,1,1,0,0,0,0,0,no
0,0,0,0,0,0,1,1,0,0,0,0,0,no
0,0,0,0,0,0,1,1,0,0,0,0,0,no
0,0,0,0,0,0,1,1,0,0,0,0,0,no
3,1,0,0,0,0,1,1,3,0,3,3,0,no
2,1,0,0,1,0,1,1,2,0,2,2,1,no
3,0,0,0,0,0,1,1,3,0,3,3,1,no
3,0,0,0,0,0,1,1,3,0,3,3,1,no
3,0,0,0,2,0,1,1,3,0,3,3,1,no
3,0,0,0,1,0,1,1,3,0,3,3,1,no
3,0,0,0,1,0,1,1,3,0,3,3,0,no
12,0,2,1,2,1,2,1,13,1,12,7,1,no
3,0,0,0,1,0,2,1,4,1,3,2.5,1,no
3,0,0,0,1,0,1,1,3,0,3,3,1,no
3,0,0,0,1,0,1,1,3,0,3,3,1,no
15,0,3,1,2,1,2,1,15,0,8,7.5,1,no
3,0,0,0,0,0,1,1,3,0,3,3,1,no
3,1,0,0,1,0,1,1,3,0,3,3,1,no
3,0,0,0,0,0,1,1,3,0,3,3,1,no
4,1,0,0,2,1,1,1,4,0,4,4,0,no
8,1,1,1,1,1,1,1,8,0,8,8,1,no
8,2,1,1,1,1,1,1,8,0,8,8,1,no
3,1,0,0,1,0,1,1,3,0,3,3,1,no
3,2,0,0,1,0,1,1,3,0,3,3,1,no
3,1,0,0,1,0,1,1,3,0,3,3,1,no
3,2,0,0,1,0,1,1,3,0,3,3,1,no
3,1,0,0,1,0,1,1,3,0,3,3,1,no
3,2,0,0,1,0,1,1,3,0,3,3,1,no
3,1,0,0,1,0,1,1,3,0,3,3,1,no
3,2,0,0,1,0,1,1,3,0,3,3,1,no
3,0,0,0,0,0,1,1,3,0,3,3,1,no
3,0,0,0,2,0,1,1,3,0,3,3,0,no
7,1,1,1,1,0,2,1,8,1,7,4.5,1,no
3,0,0,0,0,0,2,1,3,0,2,1.5,1,no
4,1,0,0,0,0,1,1,4,0,4,4,0,no
7,0,1,1,2,1,2,1,7,0,6,3.5,1,no
7,0,1,1,2,1,2,1,7,0,6,3.5,1,no
16,0,2,1,6,3,2,1,16,0,8,8,1,no
10,0,1,1,2,0,2,1,10,0,7,5,1,no
10,0,1,1,2,0,2,1,10,0,5,5,1,no
3,0,0,0,1,0,2,1,4,1,3,2.5,1,no
3,0,0,0,0,0,2,1,5,2,5,3.5,1,no
3,0,0,0,2,0,1,1,3,0,3,3,1,no
3,0,0,0,2,0,1,1,3,0,3,3,0,no
3,0,0,0,1,0,1,1,3,0,3,3,1,no
7,0,1,1,1,0,2,1,7,0,4,3.5,1,no
5,0,0,0,1,0,1,1,5,0,5,5,0,no
7,0,1,1,6,0,1,1,7,0,7,7,0,no
7,0,1,1,1,0,1,1,7,0,7,7,0,no
3,0,0,0,1,0,2,1,4,1,3,2.5,1,no
3,0,0,0,1,0,1,1,3,0,3,3,0,no
9,0,2,1,2,0,2,1,9,0,6,4.5,1,no
5,0,1,1,0,0,1,1,5,0,5,5,0,no
31,2,6,3,3,3,2,1,31,0,29,15.5,1,no
8,1,1,1,2,0,1,1,8,0,8,8,1,no
9,1,2,1,3,0,1,1,9,0,9,9,1,no
14,1,2,2,4,0,2,1,14,0,9,7,1,no
13,1,2,2,1,0,2,1,13,0,8,6.5,1,no
10,1,1,1,1,0,2,1,10,0,5,5,1,no
0,0,0,0,1,0,1,1,0,0,0,0,0,no
0,0,0,0,1,0,1,1,0,0,0,0,0,no
0,0,0,0,0,0,1,1,0,0,0,0,0,no
3,1,0,0,0,0,1,1,3,0,3,3,0,no
2,1,0,0,1,0,1,1,2,0,2,2,0,no
3,0,0,0,0,0,1,1,3,0,3,3,0,no
3,0,0,0,0,0,1,1,3,0,3,3,0,no
3,0,0,0,2,0,1,1,3,0,3,3,0,no
3,0,0,0,1,0,1,1,3,0,3,3,0,no
3,0,0,0,1,0,1,1,3,0,3,3,0,no
12,0,2,1,2,1,1,1,12,0,12,12,0,no
3,0,0,0,1,0,1,1,3,0,3,3,0,no
3,0,0,0,1,0,1,1,3,0,3,3,0,no
3,0,0,0,1,0,1,1,3,0,3,3,0,no
15,0,3,1,2,1,1,1,15,0,15,15,0,no
3,0,0,0,0,0,1,1,3,0,3,3,0,no
3,1,0,0,1,0,1,1,3,0,3,3,0,no
3,0,0,0,0,0,1,1,3,0,3,3,0,no
4,1,0,0,2,1,1,1,4,0,4,4,0,no
8,1,1,1,1,1,1,1,8,0,8,8,0,no
8,2,1,1,1,1,1,1,8,0,8,8,0,no
3,1,0,0,1,0,1,1,3,0,3,3,0,no
3,2,0,0,1,0,1,1,3,0,3,3,0,no
3,1,0,0,1,0,1,1,3,0,3,3,0,no
3,2,0,0,1,0,1,1,3,0,3,3,0,no
3,1,0,0,1,0,1,1,3,0,3,3,0,no
3,2,0,0,1,0,1,1,3,0,3,3,0,no
3,1,0,0,1,0,1,1,3,0,3,3,0,no
3,2,0,0,1,0,1,1,3,0,3,3,0,no
3,0,0,0,0,0,1,1,3,0,3,3,0,no
3,0,0,0,2,0,1,1,3,0,3,3,0,no
7,1,1,1,1,0,1,1,7,0,7,7,0,no
3,0,0,0,0,0,1,1,3,0,3,3,0,no
4,1,0,0,0,0,1,1,4,0,4,4,0,no
7,0,1,1,2,1,1,1,7,0,7,7,0,no
7,0,1,1,2,1,1,1,7,0,7,7,0,no
16,0,2,1,6,3,1,1,16,0,16,16,0,no
10,0,1,1,2,0,1,1,10,0,10,10,0,no
10,0,1,1,2,0,1,1,10,0,10,10,0,no
3,0,0,0,1,0,1,1,3,0,3,3,0,no
3,0,0,0,0,0,1,1,3,0,3,3,0,no
3,0,0,0,2,0,1,1,3,0,3,3,0,no
3,0,0,0,2,0,1,1,3,0,3,3,0,no
3,0,0,0,1,0,1,1,3,0,3,3,0,no
7,0,1,1,1,0,1,1,7,0,7,7,0,no
5,0,0,0,1,0,1,1,5,0,5,5,0,no
7,0,1,1,6,0,1,1,7,0,7,7,0,no
7,0,1,1,1,0,1,1,7,0,7,7,0,no
3,0,0,0,1,0,1,1,3,0,3,3,0,no
3,0,0,0,1,0,1,1,3,0,3,3,0,no
9,0,2,1,2,0,1,1,9,0,9,9,0,no
5,0,1,1,0,0,1,1,5,0,5,5,0,no
31,2,6,3,3,3,1,1,31,0,31,31,0,no
8,1,1,1,2,0,1,1,8,0,8,8,0,no
9,1,2,1,3,0,1,1,9,0,9,9,0,no
14,1,2,2,4,0,1,1,14,0,14,14,0,no
13,1,2,2,1,0,1,1,13,0,13,13,0,no
10,1,1,1,1,0,1,1,10,0,10,10,0,no
0,0,0,0,1,0,1,1,0,0,0,0,0,no
0,0,0,0,1,0,1,1,0,0,0,0,0,no
0,0,0,0,0,0,1,1,0,0,0,0,0,no
3,1,0,0,0,0,1,1,3,0,3,3,0,no
2,1,0,0,1,0,1,1,2,0,2,2,1,no
3,0,0,0,0,0,1,1,3,0,3,3,1,no
3,0,0,0,0,0,1,1,3,0,3,3,1,no
3,0,0,0,2,0,1,1,3,0,3,3,1,no
3,0,0,0,0,0,1,1,3,0,3,3,1,no
3,0,0,0,0,0,1,1,3,0,3,3,1,no
15,0,3,1,3,1,2,1,16,1,15,8.5,1,no
3,0,0,0,1,0,2,1,4,1,3,2.5,1,no
3,0,0,0,1,0,2,1,4,1,3,2.5,1,no
4,0,0,0,0,0,2,1,4,0,2,2,1,no
3,0,0,0,1,0,1,1,3,0,3,3,1,no
15,0,3,1,2,1,2,1,15,0,8,7.5,1,no
3,0,0,0,0,0,1,1,3,0,3,3,1,no
3,1,0,0,1,0,1,1,3,0,3,3,1,no
3,0,0,0,0,0,1,1,3,0,3,3,1,no
4,1,0,0,2,1,1,1,4,0,4,4,0,no
8,1,1,1,1,1,1,1,8,0,8,8,1,no
8,2,1,1,1,1,1,1,8,0,8,8,1,no
3,1,0,0,1,0,1,1,3,0,3,3,1,no
3,2,0,0,1,0,1,1,3,0,3,3,1,no
3,1,0,0,1,0,1,1,3,0,3,3,1,no
3,2,0,0,1,0,1,1,3,0,3,3,1,no
3,1,0,0,1,0,1,1,3,0,3,3,1,no
3,2,0,0,1,0,1,1,3,0,3,3,1,no
3,1,0,0,1,0,1,1,3,0,3,3,1,no
3,2,0,0,1,0,1,1,3,0,3,3,1,no
3,0,0,0,0,0,1,1,3,0,3,3,1,no
3,0,0,0,2,0,1,1,3,0,3,3,0,no
10,1,2,1,2,0,2,1,11,1,10,6,1,no
3,0,0,0,0,0,2,1,3,0,2,1.5,1,no
4,1,0,0,0,0,1,1,4,0,4,4,0,no
7,0,1,1,2,1,2,1,7,0,6,3.5,1,no
7,0,1,1,2,1,2,1,7,0,6,3.5,1,no
16,0,2,1,7,3,2,1,16,0,8,8,1,no
8,0,0,0,2,0,2,1,8,0,7,4,1,no
6,0,0,0,1,0,2,1,6,0,5,3,1,no
6,0,0,0,1,0,2,1,6,0,5,3,1,no
3,0,0,0,1,0,2,1,4,1,3,2.5,1,no
3,0,0,0,0,0,2,1,5,2,5,3.5,1,no
3,0,0,0,2,0,1,1,3,0,3,3,1,no
3,0,0,0,2,0,1,1,3,0,3,3,0,no
3,0,0,0,1,0,1,1,3,0,3,3,1,no
3,0,0,0,0,0,2,1,4,1,3,2.5,1,no
3,0,0,0,0,0,2,1,4,1,3,2.5,1,no
3,0,0,0,1,0,2,1,4,1,3,2.5,1,no
3,0,0,0,1,0,2,1,4,1,3,2.5,1,no
3,0,0,0,1,0,1,1,3,0,3,3,0,no
9,0,2,1,2,0,2,1,9,0,6,4.5,1,no
4,0,1,1,1,0,1,1,4,0,4,4,0,no
33,2,6,3,1,2,2,1,33,0,29,16.5,1,no
8,1,1,1,2,0,1,1,8,0,8,8,1,no
12,1,3,1,3,0,1,1,12,0,12,12,1,no
9,1,1,1,0,0,2,1,9,0,8,4.5,1,no
6,1,0,0,0,0,2,1,6,0,5,3,1,no
0,0,0,0,0,0,1,1,0,0,0,0,0,no
0,0,0,0,0,0,1,1,0,0,0,0,0,no
0,0,0,0,0,0,1,1,0,0,0,0,0,no
0,0,0,0,0,0,1,1,0,0,0,0,0,no
3,1,0,0,0,0,1,1,3,0,3,3,0,no
2,1,0,0,1,0,1,1,2,0,2,2,0,no
3,0,0,0,0,0,1,1,3,0,3,3,0,no
3,0,0,0,0,0,1,1,3,0,3,3,0,no
3,0,0,0,2,0,1,1,3,0,3,3,0,no
3,0,0,0,1,0,1,1,3,0,3,3,0,no
3,0,0,0,1,0,1,1,3,0,3,3,0,no
18,0,4,1,4,1,3,2,18,0,12,6,0,no
3,0,0,0,1,0,1,1,3,0,3,3,0,no
3,0,0,0,1,0,1,1,3,0,3,3,0,no
3,0,0,0,1,0,1,1,3,0,3,3,0,no
3,0,0,0,1,0,1,1,3,0,3,3,0,no
3,0,0,0,1,0,1,1,3,0,3,3,0,no
3,0,0,0,1,0,1,1,3,0,3,3,0,no
3,0,0,0,1,0,1,1,3,0,3,3,0,no
5,0,0,0,3,0,3,2,5,0,3,1.666667,0,no
3,0,0,0,1,0,1,1,3,0,3,3,0,no
13,0,3,2,2,1,1,1,13,0,13,13,0,no
3,0,0,0,0,0,1,1,3,0,3,3,0,no
3,1,0,0,1,0,1,1,3,0,3,3,0,no
3,0,0,0,0,0,1,1,3,0,3,3,0,no
4,1,0,0,2,1,1,1,4,0,4,4,0,no
8,1,1,1,1,1,1,1,8,0,8,8,0,no
8,2,1,1,1,1,1,1,8,0,8,8,0,no
3,1,0,0,1,0,1,1,3,0,3,3,0,no
3,2,0,0,1,0,1,1,3,0,3,3,0,no
3,1,0,0,1,0,1,1,3,0,3,3,0,no
3,2,0,0,1,0,1,1,3,0,3,3,0,no
3,1,0,0,1,0,1,1,3,0,3,3,0,no
3,2,0,0,1,0,1,1,3,0,3,3,0,no
3,1,0,0,1,0,1,1,3,0,3,3,0,no
3,2,0,0,1,0,1,1,3,0,3,3,0,no
3,0,0,0,0,0,1,1,3,0,3,3,0,no
3,0,0,0,2,0,1,1,3,0,3,3,0,no
13,1,3,1,3,0,3,2,13,0,7,4.333333,0,no
3,0,0,0,0,0,1,1,3,0,3,3,0,no
4,1,0,0,0,0,1,1,4,0,4,4,0,no
7,0,1,1,2,1,1,1,7,0,7,7,0,no
7,0,1,1,2,1,1,1,7,0,7,7,0,no
32,0,6,1,8,3,3,2,32,0,16,10.666667,0,no
22,0,3,1,6,0,3,2,22,0,10,7.333333,0,no
10,0,1,1,2,0,1,1,10,0,10,10,0,no
10,0,1,1,2,0,1,1,10,0,10,10,0,no
10,0,1,1,2,0,1,1,10,0,10,10,0,no
3,0,0,0,1,0,1,1,3,0,3,3,0,no
3,0,0,0,0,0,1,1,3,0,3,3,0,no
3,0,0,0,2,0,1,1,3,0,3,3,0,no
3,0,0,0,2,0,1,1,3,0,3,3,0,no
3,0,0,0,1,0,1,1,3,0,3,3,0,no
7,0,1,1,1,0,1,1,7,0,7,7,0,no
5,0,0,0,1,0,1,1,5,0,5,5,0,no
7,0,1,1,6,0,1,1,7,0,7,7,0,no
7,0,1,1,1,0,1,1,7,0,7,7,0,no
7,0,1,1,1,0,1,1,7,0,7,7,0,no
5,0,0,0,1,0,1,1,5,0,5,5,0,no
7,0,1,1,6,0,1,1,7,0,7,7,0,no
7,0,1,1,1,0,1,1,7,0,7,7,0,no
7,0,1,1,1,0,1,1,7,0,7,7,0,no
5,0,0,0,1,0,1,1,5,0,5,5,0,no
7,0,1,1,6,0,1,1,7,0,7,7,0,no
7,0,1,1,1,0,1,1,7,0,7,7,0,no
3,0,0,0,1,0,1,1,3,0,3,3,0,no
3,0,0,0,1,0,1,1,3,0,3,3,0,no
3,0,0,0,1,0,1,1,3,0,3,3,0,no
3,0,0,0,1,0,1,1,3,0,3,3,0,no
8,0,2,2,1,0,1,1,8,0,8,8,0,no
7,0,1,1,0,0,3,2,7,0,5,2.333333,0,no
51,2,10,3,7,5,3,2,51,0,31,17,0,no
8,1,1,1,2,0,1,1,8,0,8,8,0,no
15,1,4,1,3,0,3,2,15,0,9,5,0,no
14,1,2,2,4,0,1,1,14,0,14,14,0,no
14,1,2,2,4,0,1,1,14,0,14,14,0,no
14,1,2,2,4,0,1,1,14,0,14,14,0,no
13,1,2,2,1,0,1,1,13,0,13,13,0,no
10,1,1,1,1,0,1,1,10,0,10,10,0,no
13,1,2,2,1,0,1,1,13,0,13,13,0,no
10,1,1,1,1,0,1,1,10,0,10,10,0,no
13,1,2,2,1,0,1,1,13,0,13,13,0,no
10,1,1,1,1,0,1,1,10,0,10,10,0,no
0,0,0,0,1,0,1,1,0,0,0,0,0,no
0,0,0,0,1,0,1,1,0,0,0,0,0,no
0,0,0,0,1,0,1,1,0,0,0,0,0,no
0,0,0,0,1,0,1,1,0,0,0,0,0,no
0,0,0,0,1,0,1,1,0,0,0,0,0,no
0,0,0,0,1,0,1,1,0,0,0,0,0,no
0,0,0,0,0,0,1,1,0,0,0,0,0,no
0,0,0,0,0,0,1,1,0,0,0,0,0,no
0,0,0,0,0,0,1,1,0,0,0,0,0,no
3,1,0,0,0,0,1,1,3,0,3,3,0,no
2,1,0,0,1,0,1,1,2,0,2,2,1,no
3,0,0,0,0,0,1,1,3,0,3,3,1,no
3,0,0,0,0,0,1,1,3,0,3,3,1,no
3,0,0,0,2,0,1,1,3,0,3,3,1,no
12,0,2,1,2,1,2,1,13,1,12,7,1,no
3,0,0,0,0,0,1,1,3,0,3,3,1,no
3,0,0,0,1,0,2,1,4,1,3,2.5,1,no
3,0,0,0,0,0,2,1,3,0,2,1.5,1,no
3,0,0,0,1,0,1,1,3,0,3,3,1,no
11,0,2,1,2,1,2,1,11,0,6,5.5,1,no
3,0,0,0,0,0,1,1,3,0,3,3,1,no
3,1,0,0,1,0,1,1,3,0,3,3,1,no
3,0,0,0,0,0,1,1,3,0,3,3,1,no
4,1,0,0,2,1,1,1,4,0,4,4,0,no
8,1,1,1,1,1,1,1,8,0,8,8,1,no
8,2,1,1,1,1,1,1,8,0,8,8,1,no
3,1,0,0,1,0,1,1,3,0,3,3,1,no
3,2,0,0,1,0,1,1,3,0,3,3,1,no
3,1,0,0,1,0,1,1,3,0,3,3,1,no
3,2,0,0,1,0,1,1,3,0,3,3,1,no
3,1,0,0,1,0,1,1,3,0,3,3,1,no
3,2,0,0,1,0,1,1,3,0,3,3,1,no
3,1,0,0,1,0,1,1,3,0,3,3,1,no
3,2,0,0,1,0,1,1,3,0,3,3,1,no
3,0,0,0,0,0,1,1,3,0,3,3,1,no
3,0,0,0,2,0,1,1,3,0,3,3,0,no
7,1,1,1,1,0,2,1,8,1,7,4.5,1,no
3,0,0,0,0,0,2,1,3,0,2,1.5,1,no
4,1,0,0,0,0,1,1,4,0,4,4,0,no
7,0,1,1,2,1,2,1,7,0,6,3.5,1,no
7,0,1,1,2,1,2,1,7,0,6,3.5,1,no
12,0,1,1,6,3,2,1,12,0,8,6,1,no
6,0,0,0,1,0,2,1,7,1,7,4,1,no
6,0,0,0,1,0,2,1,6,0,5,3,1,no
3,0,0,0,1,0,2,1,4,1,3,2.5,1,no
3,0,0,0,0,0,2,1,5,2,5,3.5,1,no
3,0,0,0,2,0,1,1,3,0,3,3,1,no
3,0,0,0,2,0,1,1,3,0,3,3,0,no
3,0,0,0,1,0,1,1,3,0,3,3,1,no
3,0,0,0,0,0,2,1,4,1,3,2.5,1,no
3,0,0,0,1,0,2,1,4,1,3,2.5,1,no
3,0,0,0,1,0,1,1,3,0,3,3,0,no
6,0,1,1,2,0,2,1,6,0,3,3,1,no
4,0,1,1,1,0,1,1,4,0,4,4,0,no
27,2,5,3,1,2,2,1,27,0,24,13.5,1,no
8,1,1,1,2,0,1,1,8,0,8,8,1,no
9,1,2,1,3,0,1,1,9,0,9,9,1,no
9,1,1,1,0,0,2,1,9,0,8,4.5,1,no
0,0,0,0,0,0,1,1,0,0,0,0,0,no
0,0,0,0,0,0,1,1,0,0,0,0,0,no
4,2,0,0,1,0,1,1,4,0,4,4,1,no
3,0,0,0,1,0,2,1,4,1,3,2.5,1,no
3,0,0,0,0,0,1,1,3,0,3,3,1,no
3,0,0,0,0,0,1,1,3,0,3,3,1,no
3,0,0,0,0,0,1,1,3,0,3,3,1,no
3,0,0,0,0,0,1,1,3,0,3,3,1,no
6,1,1,1,1,0,1,1,6,0,6,6,1,no
48,1,22,1,0,0,5,1,48,0,30,9.6,1,no
3,1,0,0,0,0,1,1,3,0,3,3,1,no
3,1,0,0,0,0,1,1,3,0,3,3,0,no
2,1,0,0,1,0,1,1,2,0,2,2,1,no
3,0,0,0,0,0,1,1,3,0,3,3,1,no
3,0,0,0,0,0,1,1,3,0,3,3,1,no
3,0,0,0,2,0,1,1,3,0,3,3,1,no
12,0,2,1,2,1,2,1,13,1,12,7,1,no
3,0,0,0,0,0,1,1,3,0,3,3,1,no
3,0,0,0,1,0,2,1,4,1,3,2.5,1,no
3,0,0,0,0,0,2,1,3,0,2,1.5,1,no
3,0,0,0,1,0,1,1,3,0,3,3,1,no
11,0,2,1,2,1,2,1,11,0,6,5.5,1,no
3,0,0,0,0,0,1,1,3,0,3,3,1,no
3,1,0,0,1,0,1,1,3,0,3,3,1,no
3,0,0,0,0,0,1,1,3,0,3,3,1,no
4,1,0,0,2,1,1,1,4,0,4,4,0,no
8,1,1,1,1,1,1,1,8,0,8,8,1,no
8,2,1,1,1,1,1,1,8,0,8,8,1,no
3,1,0,0,1,0,1,1,3,0,3,3,1,no
3,2,0,0,1,0,1,1,3,0,3,3,1,no
3,1,0,0,1,0,1,1,3,0,3,3,1,no
3,2,0,0,1,0,1,1,3,0,3,3,1,no
3,1,0,0,1,0,1,1,3,0,3,3,1,no
3,2,0,0,1,0,1,1,3,0,3,3,1,no
3,1,0,0,1,0,1,1,3,0,3,3,1,no
3,2,0,0,1,0,1,1,3,0,3,3,1,no
3,0,0,0,0,0,1,1,3,0,3,3,1,no
3,0,0,0,2,0,1,1,3,0,3,3,0,no
7,1,1,1,1,0,2,1,8,1,7,4.5,1,no
3,0,0,0,0,0,2,1,3,0,2,1.5,1,no
4,1,0,0,0,0,1,1,4,0,4,4,0,no
7,0,1,1,2,1,2,1,7,0,6,3.5,1,no
7,0,1,1,2,1,2,1,7,0,6,3.5,1,no
12,0,1,1,6,3,2,1,12,0,8,6,1,no
6,0,0,0,1,0,2,1,7,1,7,4,1,no
6,0,0,0,1,0,2,1,6,0,5,3,1,no
3,0,0,0,1,0,2,1,4,1,3,2.5,1,no
3,0,0,0,0,0,2,1,5,2,5,3.5,1,no
3,0,0,0,2,0,1,1,3,0,3,3,1,no
3,0,0,0,2,0,1,1,3,0,3,3,0,no
3,0,0,0,1,0,1,1,3,0,3,3,1,no
3,0,0,0,0,0,2,1,4,1,3,2.5,1,no
3,0,0,0,1,0,2,1,4,1,3,2.5,1,no
3,0,0,0,1,0,1,1,3,0,3,3,0,no
6,0,1,1,2,0,2,1,6,0,3,3,1,no
4,0,1,1,1,0,1,1,4,0,4,4,0,no
27,2,5,3,1,2,2,1,27,0,24,13.5,1,no
8,1,1,1,2,0,1,1,8,0,8,8,1,no
9,1,2,1,3,0,1,1,9,0,9,9,1,no
9,1,1,1,0,0,2,1,9,0,8,4.5,1,no
0,0,0,0,0,0,1,1,0,0,0,0,0,no
0,0,0,0,0,0,1,1,0,0,0,0,0,no
3,1,0,0,0,0,1,1,3,0,3,3,0,no
2,1,0,0,1,0,1,1,2,0,2,2,1,no
3,0,0,0,1,0,1,1,3,0,3,3,1,no
3,0,0,0,0,0,1,1,3,0,3,3,1,no
3,0,0,0,0,0,1,1,3,0,3,3,1,no
3,0,0,0,2,0,1,1,3,0,3,3,1,no
3,0,0,0,0,0,1,1,3,0,3,3,0,no
3,0,0,0,0,0,1,1,3,0,3,3,0,no
3,0,0,0,1,0,1,1,3,0,3,3,0,no
3,0,0,0,1,0,1,1,3,0,3,3,0,no
27,0,7,1,7,1,5,1,28,1,18,5.8,1,no
3,0,0,0,0,0,1,1,3,0,3,3,1,no
3,0,0,0,0,0,1,1,3,0,3,3,1,no
3,0,0,0,1,0,2,1,4,1,3,2.5,1,no
3,0,0,0,1,0,1,1,3,0,3,3,0,no
3,0,0,0,1,0,2,1,4,1,3,2.5,0,no
3,0,0,0,1,0,1,1,3,0,3,3,0,no
3,0,0,0,1,0,2,1,4,1,3,2.5,1,no
3,0,0,0,1,0,2,1,4,1,3,2.5,1,no
8,0,0,0,2,0,4,1,8,0,3,2,1,no
3,0,0,0,1,0,1,1,3,0,3,3,1,no
11,0,2,1,2,1,2,1,11,0,6,5.5,1,no
3,0,0,0,0,0,1,1,3,0,3,3,1,no
3,1,0,0,1,0,1,1,3,0,3,3,1,no
3,0,0,0,0,0,1,1,3,0,3,3,1,no
4,1,0,0,2,1,1,1,4,0,4,4,0,no
8,1,1,1,1,1,1,1,8,0,8,8,1,no
8,2,1,1,1,1,1,1,8,0,8,8,1,no
3,1,0,0,1,0,1,1,3,0,3,3,1,no
3,2,0,0,1,0,1,1,3,0,3,3,1,no
3,1,0,0,1,0,1,1,3,0,3,3,1,no
3,2,0,0,1,0,1,1,3,0,3,3,1,no
3,1,0,0,1,0,1,1,3,0,3,3,1,no
3,2,0,0,1,0,1,1,3,0,3,3,1,no
3,1,0,0,1,0,1,1,3,0,3,3,1,no
3,2,0,0,1,0,1,1,3,0,3,3,1,no
3,0,0,0,0,0,1,1,3,0,3,3,1,no
3,0,0,0,2,0,1,1,3,0,3,3,0,no
22,1,6,1,6,0,5,1,23,1,13,4.8,1,no
3,0,0,0,0,0,2,1,3,0,2,1.5,1,no
4,1,0,0,0,0,1,1,4,0,4,4,0,no
7,0,1,1,2,1,2,1,7,0,6,3.5,1,no
7,0,1,1,2,1,2,1,7,0,6,3.5,1,no
36,0,7,1,11,3,4,1,36,0,16,9,1,no
20,0,1,1,8,0,4,1,20,0,7,5,1,no
6,0,0,0,2,0,2,1,6,0,5,3,1,no
6,0,0,0,1,0,1,1,6,0,6,6,0,no
6,0,0,0,1,0,2,1,6,0,5,3,0,no
10,0,1,1,2,0,1,1,10,0,10,10,0,no
6,0,0,0,1,0,2,1,6,0,5,3,1,no
6,0,0,0,1,0,2,1,6,0,5,3,1,no
3,0,0,0,1,0,2,1,4,1,3,2.5,1,no
3,0,0,0,0,0,2,1,5,2,5,3.5,1,no
3,0,0,0,1,0,2,1,4,1,3,2.5,1,no
3,0,0,0,2,0,1,1,3,0,3,3,1,no
3,0,0,0,2,0,1,1,3,0,3,3,0,no
3,0,0,0,1,0,1,1,3,0,3,3,1,no
3,0,0,0,0,0,1,1,3,0,3,3,0,no
3,0,0,0,0,0,2,1,4,1,3,2.5,0,no
7,0,1,1,1,0,1,1,7,0,7,7,0,no
5,0,0,0,1,0,1,1,5,0,5,5,0,no
7,0,1,1,6,0,1,1,7,0,7,7,0,no
7,0,1,1,1,0,1,1,7,0,7,7,0,no
3,0,0,0,0,0,2,1,4,1,3,2.5,1,no
3,0,0,0,0,0,2,1,4,1,3,2.5,1,no
3,0,0,0,1,0,2,1,4,1,3,2.5,1,no
3,0,0,0,1,0,1,1,3,0,3,3,0,no
3,0,0,0,1,0,2,1,4,1,3,2.5,0,no
3,0,0,0,1,0,1,1,3,0,3,3,0,no
3,0,0,0,1,0,2,1,4,1,3,2.5,1,no
3,0,0,0,1,0,2,1,4,1,3,2.5,1,no
3,0,0,0,1,0,1,1,3,0,3,3,0,no
6,0,1,1,2,0,2,1,6,0,3,3,1,no
5,0,1,1,0,0,2,1,5,0,4,2.5,0,no
67,2,12,3,5,5,5,1,67,0,40,13.4,1,no
8,1,1,1,2,0,1,1,8,0,8,8,1,no
24,1,7,1,3,0,4,1,24,0,15,6,1,no
14,1,2,2,4,0,1,1,14,0,14,14,0,no
9,1,1,1,1,0,2,1,9,0,8,4.5,1,no
6,1,0,0,0,0,1,1,6,0,6,6,0,no
6,1,0,0,0,0,2,1,6,0,5,3,0,no
13,1,2,2,1,0,1,1,13,0,13,13,0,no
10,1,1,1,1,0,1,1,10,0,10,10,0,no
9,1,1,1,0,0,2,1,9,0,8,4.5,1,no
6,1,0,0,0,0,2,1,6,0,5,3,1,no
4,2,0,0,1,0,1,1,4,0,4,4,1,no
3,0,0,0,1,0,1,1,3,0,3,3,1,no
3,0,0,0,0,0,1,1,3,0,3,3,1,no
3,0,0,0,0,0,1,1,3,0,3,3,1,no
3,0,0,0,0,0,1,1,3,0,3,3,1,no
3,0,0,0,0,0,1,1,3,0,3,3,1,no
6,1,1,1,1,0,1,1,6,0,6,6,1,no
12,1,4,1,0,0,1,1,12,0,12,12,1,no
3,1,0,0,0,0,1,1,3,0,3,3,1,no
0,0,0,0,1,0,1,1,0,0,0,0,0,no
0,0,0,0,0,0,1,1,0,0,0,0,0,no
0,0,0,0,0,0,1,1,0,0,0,0,0,no
0,0,0,0,1,0,1,1,0,0,0,0,0,no
0,0,0,0,1,0,1,1,0,0,0,0,0,no
0,0,0,0,0,0,1,1,0,0,0,0,0,no
0,0,0,0,0,0,1,1,0,0,0,0,0,no
0,0,0,0,0,0,1,1,0,0,0,0,0,no
0,0,0,0,0,0,1,1,0,0,0,0,0,no
0,0,0,0,0,0,1,1,0,0,0,0,0,no
0,0,0,0,0,0,1,1,0,0,0,0,0,no
0,0,0,0,0,0,1,1,0,0,0,0,0,no
0,0,0,0,0,0,1,1,0,0,0,0,0,no
3,1,0,0,0,0,1,1,3,0,3,3,0,no
2,1,0,0,1,0,1,1,2,0,2,2,0,no
3,0,0,0,0,0,1,1,3,0,3,3,0,no
3,0,0,0,0,0,1,1,3,0,3,3,0,no
3,0,0,0,2,0,1,1,3,0,3,3,0,no
3,0,0,0,1,0,1,1,3,0,3,3,0,no
3,0,0,0,1,0,1,1,3,0,3,3,0,no
12,0,2,1,2,1,1,1,12,0,12,12,0,no
3,0,0,0,1,0,1,1,3,0,3,3,0,no
3,0,0,0,1,0,1,1,3,0,3,3,0,no
3,0,0,0,1,0,1,1,3,0,3,3,0,no
7,0,1,1,2,1,1,1,7,0,7,7,0,no
3,0,0,0,0,0,1,1,3,0,3,3,0,no
3,1,0,0,1,0,1,1,3,0,3,3,0,no
3,0,0,0,0,0,1,1,3,0,3,3,0,no
4,1,0,0,2,1,1,1,4,0,4,4,0,no
8,1,1,1,1,1,1,1,8,0,8,8,0,no
8,2,1,1,1,1,1,1,8,0,8,8,0,no
3,1,0,0,1,0,1,1,3,0,3,3,0,no
3,2,0,0,1,0,1,1,3,0,3,3,0,no
3,1,0,0,1,0,1,1,3,0,3,3,0,no
3,2,0,0,1,0,1,1,3,0,3,3,0,no
3,1,0,0,1,0,1,1,3,0,3,3,0,no
3,2,0,0,1,0,1,1,3,0,3,3,0,no
3,1,0,0,1,0,1,1,3,0,3,3,0,no
3,2,0,0,1,0,1,1,3,0,3,3,0,no
3,0,0,0,0,0,1,1,3,0,3,3,0,no
3,0,0,0,2,0,1,1,3,0,3,3,0,no
7,1,1,1,1,0,1,1,7,0,7,7,0,no
3,0,0,0,0,0,1,1,3,0,3,3,0,no
4,1,0,0,0,0,1,1,4,0,4,4,0,no
7,0,1,1,2,1,1,1,7,0,7,7,0,no
7,0,1,1,2,1,1,1,7,0,7,7,0,no
16,0,2,1,6,3,1,1,16,0,16,16,0,no
10,0,1,1,2,0,1,1,10,0,10,10,0,no
10,0,1,1,2,0,1,1,10,0,10,10,0,no
3,0,0,0,1,0,1,1,3,0,3,3,0,no
3,0,0,0,0,0,1,1,3,0,3,3,0,no
3,0,0,0,2,0,1,1,3,0,3,3,0,no
3,0,0,0,2,0,1,1,3,0,3,3,0,no
3,0,0,0,1,0,1,1,3,0,3,3,0,no
7,0,1,1,1,0,1,1,7,0,7,7,0,no
5,0,0,0,1,0,1,1,5,0,5,5,0,no
7,0,1,1,6,0,1,1,7,0,7,7,0,no
7,0,1,1,1,0,1,1,7,0,7,7,0,no
3,0,0,0,1,0,1,1,3,0,3,3,0,no
3,0,0,0,1,0,1,1,3,0,3,3,0,no
3,0,0,0,1,0,1,1,3,0,3,3,0,no
5,0,1,1,0,0,1,1,5,0,5,5,0,no
31,2,6,3,3,3,1,1,31,0,31,31,0,no
8,1,1,1,2,0,1,1,8,0,8,8,0,no
9,1,2,1,3,0,1,1,9,0,9,9,0,no
14,1,2,2,4,0,1,1,14,0,14,14,0,no
13,1,2,2,1,0,1,1,13,0,13,13,0,no
10,1,1,1,1,0,1,1,10,0,10,10,0,no
0,0,0,0,1,0,1,1,0,0,0,0,0,no
0,0,0,0,1,0,1,1,0,0,0,0,0,no
0,0,0,0,0,0,1,1,0,0,0,0,0,no
3,1,0,0,0,0,1,1,3,0,3,3,0,no
2,1,0,0,1,0,1,1,2,0,2,2,0,no
3,0,0,0,0,0,1,1,3,0,3,3,0,no
3,0,0,0,0,0,1,1,3,0,3,3,0,no
3,0,0,0,2,0,1,1,3,0,3,3,0,no
3,0,0,0,1,0,1,1,3,0,3,3,0,no
3,0,0,0,1,0,1,1,3,0,3,3,0,no
15,0,3,1,3,1,1,1,15,0,15,15,0,no
3,0,0,0,1,0,1,1,3,0,3,3,0,no
3,0,0,0,1,0,1,1,3,0,3,3,0,no
3,0,0,0,1,0,1,1,3,0,3,3,0,no
3,0,0,0,1,0,1,1,3,0,3,3,0,no
4,0,0,0,2,0,1,1,4,0,4,4,0,no
3,0,0,0,1,0,1,1,3,0,3,3,0,no
13,0,3,2,2,1,1,1,13,0,13,13,0,no
3,0,0,0,0,0,1,1,3,0,3,3,0,no
3,1,0,0,1,0,1,1,3,0,3,3,0,no
3,0,0,0,0,0,1,1,3,0,3,3,0,no
4,1,0,0,2,1,1,1,4,0,4,4,0,no
8,1,1,1,1,1,1,1,8,0,8,8,0,no
8,2,1,1,1,1,1,1,8,0,8,8,0,no
3,1,0,0,1,0,1,1,3,0,3,3,0,no
3,2,0,0,1,0,1,1,3,0,3,3,0,no
3,1,0,0,1,0,1,1,3,0,3,3,0,no
3,2,0,0,1,0,1,1,3,0,3,3,0,no
3,1,0,0,1,0,1,1,3,0,3,3,0,no
3,2,0,0,1,0,1,1,3,0,3,3,0,no
3,1,0,0,1,0,1,1,3,0,3,3,0,no
3,2,0,0,1,0,1,1,3,0,3,3,0,no
3,0,0,0,0,0,1,1,3,0,3,3,0,no
3,0,0,0,2,0,1,1,3,0,3,3,0,no
10,1,2,1,2,0,1,1,10,0,10,10,0,no
3,0,0,0,0,0,1,1,3,0,3,3,0,no
4,1,0,0,0,0,1,1,4,0,4,4,0,no
7,0,1,1,2,1,1,1,7,0,7,7,0,no
7,0,1,1,2,1,1,1,7,0,7,7,0,no
24,0,4,1,7,3,1,1,24,0,24,24,0,no
16,0,2,1,4,0,1,1,16,0,16,16,0,no
10,0,1,1,2,0,1,1,10,0,10,10,0,no
10,0,1,1,2,0,1,1,10,0,10,10,0,no
3,0,0,0,1,0,1,1,3,0,3,3,0,no
3,0,0,0,0,0,1,1,3,0,3,3,0,no
3,0,0,0,2,0,1,1,3,0,3,3,0,no
3,0,0,0,2,0,1,1,3,0,3,3,0,no
3,0,0,0,1,0,1,1,3,0,3,3,0,no
7,0,1,1,1,0,1,1,7,0,7,7,0,no
5,0,0,0,1,0,1,1,5,0,5,5,0,no
7,0,1,1,6,0,1,1,7,0,7,7,0,no
7,0,1,1,1,0,1,1,7,0,7,7,0,no
7,0,1,1,1,0,1,1,7,0,7,7,0,no
5,0,0,0,1,0,1,1,5,0,5,5,0,no
7,0,1,1,6,0,1,1,7,0,7,7,0,no
7,0,1,1,1,0,1,1,7,0,7,7,0,no
3,0,0,0,1,0,1,1,3,0,3,3,0,no
3,0,0,0,1,0,1,1,3,0,3,3,0,no
3,0,0,0,1,0,1,1,3,0,3,3,0,no
8,0,2,2,1,0,1,1,8,0,8,8,0,no
6,0,1,1,0,0,1,1,6,0,6,6,0,no
41,2,8,3,5,4,1,1,41,0,41,41,0,no
8,1,1,1,2,0,1,1,8,0,8,8,0,no
12,1,3,1,3,0,1,1,12,0,12,12,0,no
14,1,2,2,4,0,1,1,14,0,14,14,0,no
14,1,2,2,4,0,1,1,14,0,14,14,0,no
13,1,2,2,1,0,1,1,13,0,13,13,0,no
10,1,1,1,1,0,1,1,10,0,10,10,0,no
13,1,2,2,1,0,1,1,13,0,13,13,0,no
10,1,1,1,1,0,1,1,10,0,10,10,0,no
0,0,0,0,1,0,1,1,0,0,0,0,0,no
0,0,0,0,1,0,1,1,0,0,0,0,0,no
0,0,0,0,1,0,1,1,0,0,0,0,0,no
0,0,0,0,1,0,1,1,0,0,0,0,0,no
0,0,0,0,0,0,1,1,0,0,0,0,0,no
0,0,0,0,0,0,1,1,0,0,0,0,0,no
4,2,0,0,1,0,1,1,4,0,4,4,0,no
3,0,0,0,1,0,1,1,3,0,3,3,0,no
3,0,0,0,0,0,1,1,3,0,3,3,0,no
3,0,0,0,0,0,1,1,3,0,3,3,0,no
3,0,0,0,0,0,1,1,3,0,3,3,0,no
3,0,0,0,0,0,1,1,3,0,3,3,0,no
6,1,1,1,1,0,1,1,6,0,6,6,0,no
10,1,3,1,0,0,1,1,10,0,10,10,0,no
3,1,0,0,0,0,1,1,3,0,3,3,0,no
3,1,0,0,0,0,1,1,3,0,3,3,0,no
2,1,0,0,1,0,1,1,2,0,2,2,0,no
3,0,0,0,0,0,1,1,3,0,3,3,0,no
3,0,0,0,0,0,1,1,3,0,3,3,0,no
3,0,0,0,2,0,1,1,3,0,3,3,0,no
3,0,0,0,1,0,1,1,3,0,3,3,0,no
12,0,2,1,2,1,1,1,12,0,12,12,0,no
3,0,0,0,1,0,1,1,3,0,3,3,0,no
3,0,0,0,1,0,1,1,3,0,3,3,0,no
3,0,0,0,1,0,1,1,3,0,3,3,0,no
7,0,1,1,2,1,1,1,7,0,7,7,0,no
3,0,0,0,0,0,1,1,3,0,3,3,0,no
3,1,0,0,1,0,1,1,3,0,3,3,0,no
3,0,0,0,0,0,1,1,3,0,3,3,0,no
4,1,0,0,2,1,1,1,4,0,4,4,0,no
8,1,1,1,1,1,1,1,8,0,8,8,0,no
8,2,1,1,1,1,1,1,8,0,8,8,0,no
3,1,0,0,1,0,1,1,3,0,3,3,0,no
3,2,0,0,1,0,1,1,3,0,3,3,0,no
3,1,0,0,1,0,1,1,3,0,3,3,0,no
3,2,0,0,1,0,1,1,3,0,3,3,0,no
3,1,0,0,1,0,1,1,3,0,3,3,0,no
3,2,0,0,1,0,1,1,3,0,3,3,0,no
3,1,0,0,1,0,1,1,3,0,3,3,0,no
3,2,0,0,1,0,1,1,3,0,3,3,0,no
3,0,0,0,0,0,1,1,3,0,3,3,0,no
3,0,0,0,2,0,1,1,3,0,3,3,0,no
7,1,1,1,1,0,1,1,7,0,7,7,0,no
3,0,0,0,0,0,1,1,3,0,3,3,0,no
4,1,0,0,0,0,1,1,4,0,4,4,0,no
7,0,1,1,2,1,1,1,7,0,7,7,0,no
7,0,1,1,2,1,1,1,7,0,7,7,0,no
12,0,1,1,6,3,1,1,12,0,12,12,0,no
6,0,0,0,2,0,1,1,6,0,6,6,0,no
6,0,0,0,2,0,1,1,6,0,6,6,0,no
3,0,0,0,1,0,1,1,3,0,3,3,0,no
3,0,0,0,0,0,1,1,3,0,3,3,0,no
3,0,0,0,2,0,1,1,3,0,3,3,0,no
3,0,0,0,2,0,1,1,3,0,3,3,0,no
3,0,0,0,1,0,1,1,3,0,3,3,0,no
3,0,0,0,1,0,1,1,3,0,3,3,0,no
3,0,0,0,1,0,1,1,3,0,3,3,0,no
3,0,0,0,1,0,1,1,3,0,3,3,0,no
3,0,0,0,1,0,1,1,3,0,3,3,0,no
4,0,1,1,1,0,1,1,4,0,4,4,0,no
33,2,6,3,3,4,1,1,33,0,33,33,0,no
8,1,1,1,2,0,1,1,8,0,8,8,0,no
9,1,2,1,3,0,1,1,9,0,9,9,0,no
9,1,1,1,1,0,1,1,9,0,9,9,0,no
0,0,0,0,1,0,1,1,0,0,0,0,0,no
0,0,0,0,0,0,1,1,0,0,0,0,0,no
3,1,0,0,0,0,1,1,3,0,3,3,0,no
2,1,0,0,1,0,1,1,2,0,2,2,0,no
3,0,0,0,1,0,1,1,3,0,3,3,0,no
3,0,0,0,0,0,1,1,3,0,3,3,0,no
3,0,0,0,0,0,1,1,3,0,3,3,0,no
3,0,0,0,2,0,1,1,3,0,3,3,0,no
3,0,0,0,0,0,1,1,3,0,3,3,0,no
3,0,0,0,0,0,1,1,3,0,3,3,0,no
3,0,0,0,0,0,1,1,3,0,3,3,0,no
13,0,2,2,1,3,1,1,13,0,13,13,0,no
10,0,1,1,1,2,1,1,10,0,10,10,0,no
3,0,0,0,0,0,1,1,3,0,3,3,0,no
3,0,0,0,1,0,1,1,3,0,3,3,0,no
3,0,0,0,1,0,1,1,3,0,3,3,0,no
30,0,8,1,8,1,7,2,32,2,15,4.857143,0,no
3,0,0,0,1,0,3,1,5,2,3,2.333333,0,no
3,0,0,0,1,0,2,1,4,1,3,2.5,0,no
3,0,0,0,1,0,1,1,3,0,3,3,0,no
3,0,0,0,1,0,3,1,5,2,3,2.333333,0,no
3,0,0,0,1,0,2,1,4,1,3,2.5,0,no
3,0,0,0,1,0,1,1,3,0,3,3,0,no
3,0,0,0,1,0,2,1,4,1,3,2.5,0,no
9,0,0,0,2,0,7,2,10,1,3,1.571429,0,no
3,0,0,0,1,0,1,1,3,0,3,3,0,no
7,0,1,1,2,1,2,1,7,0,4,3.5,0,no
3,0,0,0,0,0,1,1,3,0,3,3,0,no
3,1,0,0,1,0,1,1,3,0,3,3,0,no
3,0,0,0,0,0,1,1,3,0,3,3,0,no
4,1,0,0,2,1,1,1,4,0,4,4,0,no
8,1,1,1,1,1,1,1,8,0,8,8,0,no
8,2,1,1,1,1,1,1,8,0,8,8,0,no
3,1,0,0,1,0,1,1,3,0,3,3,0,no
3,2,0,0,1,0,1,1,3,0,3,3,0,no
3,1,0,0,1,0,1,1,3,0,3,3,0,no
3,2,0,0,1,0,1,1,3,0,3,3,0,no
3,1,0,0,1,0,1,1,3,0,3,3,0,no
3,2,0,0,1,0,1,1,3,0,3,3,0,no
3,1,0,0,1,0,1,1,3,0,3,3,0,no
3,2,0,0,1,0,1,1,3,0,3,3,0,no
3,0,0,0,0,0,1,1,3,0,3,3,0,no
3,0,0,0,2,0,1,1,3,0,3,3,0,no
25,1,7,1,7,0,7,2,27,2,10,4.142857,0,no
3,0,0,0,0,0,2,1,3,0,2,1.5,0,no
4,1,0,0,0,0,1,1,4,0,4,4,0,no
7,0,1,1,2,1,2,1,7,0,6,3.5,0,no
7,0,1,1,2,1,2,1,7,0,6,3.5,0,no
40,0,8,1,12,3,7,2,41,1,8,6,0,no
22,0,1,1,9,0,7,2,23,1,7,3.428571,0,no
6,0,0,0,2,0,3,1,7,1,5,2.666667,0,no
6,0,0,0,1,0,2,1,7,1,6,4,0,no
6,0,0,0,1,0,1,1,6,0,6,6,0,no
6,0,0,0,1,0,3,1,7,1,5,2.666667,0,no
6,0,0,0,1,0,2,1,7,1,6,4,0,no
6,0,0,0,1,0,1,1,6,0,6,6,0,no
10,0,1,1,2,0,2,1,11,1,10,6,0,no
3,0,0,0,1,0,2,1,4,1,3,2.5,0,no
3,0,0,0,0,0,2,1,5,2,5,3.5,0,no
3,0,0,0,1,0,2,1,4,1,3,2.5,0,no
3,0,0,0,2,0,1,1,3,0,3,3,0,no
3,0,0,0,2,0,1,1,3,0,3,3,0,no
3,0,0,0,1,0,1,1,3,0,3,3,0,no
3,0,0,0,0,0,1,1,3,0,3,3,0,no
3,0,0,0,0,0,1,1,3,0,3,3,0,no
3,0,0,0,0,0,2,1,4,1,3,2.5,0,no
10,0,1,1,1,2,1,1,10,0,10,10,0,no
3,0,0,0,0,0,1,1,3,0,3,3,0,no
7,0,1,1,1,0,1,1,7,0,7,7,0,no
5,0,0,0,1,0,2,1,6,1,5,3.5,0,no
7,0,1,1,6,0,1,1,7,0,7,7,0,no
7,0,1,1,1,0,1,1,7,0,7,7,0,no
3,0,0,0,1,0,3,1,5,2,3,2.333333,0,no
3,0,0,0,1,0,2,1,4,1,3,2.5,0,no
3,0,0,0,1,0,1,1,3,0,3,3,0,no
3,0,0,0,1,0,3,1,5,2,3,2.333333,0,no
3,0,0,0,1,0,2,1,4,1,3,2.5,0,no
3,0,0,0,1,0,1,1,3,0,3,3,0,no
3,0,0,0,1,0,2,1,4,1,3,2.5,0,no
3,0,0,0,1,0,1,1,3,0,3,3,0,no
3,0,0,0,1,0,2,1,4,1,3,2.5,0,no
5,0,1,1,0,0,2,1,5,0,4,2.5,0,no
73,2,13,3,5,5,7,2,74,1,35,10.714286,0,no
8,1,1,1,2,0,1,1,8,0,8,8,0,no
27,1,8,1,3,0,6,2,28,1,12,4.833333,0,no
14,1,2,2,4,0,2,1,15,1,14,8,0,no
9,1,1,1,1,0,3,1,10,1,8,3.666667,0,no
6,1,0,0,0,0,2,1,7,1,6,4,0,no
6,1,0,0,0,0,1,1,6,0,6,6,0,no
6,1,0,0,0,0,3,1,7,1,5,2.666667,0,no
9,1,1,1,0,0,2,1,10,1,9,5.5,0,no
5,1,0,0,0,0,2,1,6,1,5,3.5,0,no
6,1,0,0,0,0,1,1,6,0,6,6,0,no
13,1,2,2,1,0,2,1,14,1,13,7.5,0,no
10,1,1,1,1,0,2,1,11,1,10,6,0,no
0,0,0,0,1,0,1,1,0,0,0,0,0,no
0,0,0,0,0,0,1,1,0,0,0,0,0,no
0,0,0,0,0,0,1,1,0,0,0,0,0,no
0,0,0,0,0,0,1,1,0,0,0,0,0,no
0,0,0,0,0,0,1,1,0,0,0,0,0,no
0,0,0,0,0,0,1,1,0,0,0,0,0,no
0,0,0,0,1,0,1,1,0,0,0,0,0,no
0,0,0,0,1,0,1,1,0,0,0,0,0,no
0,0,0,0,0,0,1,1,0,0,0,0,0,no
0,0,0,0,0,0,1,1,0,0,0,0,0,no
0,0,0,0,0,0,1,1,0,0,0,0,0,no
0,0,0,0,0,0,1,1,0,0,0,0,0,no
0,0,0,0,0,0,1,1,0,0,0,0,0,no
0,0,0,0,0,0,1,1,0,0,0,0,0,no
0,0,0,0,0,0,1,1,0,0,0,0,0,no
3,1,0,0,0,0,1,1,3,0,3,3,0,no
2,1,0,0,1,0,1,1,2,0,2,2,0,no
3,0,0,0,0,0,1,1,3,0,3,3,0,no
3,0,0,0,0,0,1,1,3,0,3,3,0,no
3,0,0,0,2,0,1,1,3,0,3,3,0,no
3,0,0,0,0,0,1,1,3,0,3,3,0,no
13,0,2,2,1,3,1,1,13,0,13,13,0,no
10,0,1,1,1,2,1,1,10,0,10,10,0,no
3,0,0,0,0,0,1,1,3,0,3,3,0,no
3,0,0,0,1,0,1,1,3,0,3,3,0,no
3,0,0,0,1,0,1,1,3,0,3,3,0,no
21,0,5,1,5,1,4,2,22,1,15,5.75,0,no
3,0,0,0,1,0,1,1,3,0,3,3,0,no
3,0,0,0,1,0,1,1,3,0,3,3,0,no
3,0,0,0,1,0,1,1,3,0,3,3,0,no
3,0,0,0,1,0,1,1,3,0,3,3,0,no
6,0,0,0,1,0,4,2,7,1,4,2,0,no
3,0,0,0,1,0,1,1,3,0,3,3,0,no
7,0,1,1,2,1,1,1,7,0,7,7,0,no
3,0,0,0,0,0,1,1,3,0,3,3,0,no
3,1,0,0,1,0,1,1,3,0,3,3,0,no
3,0,0,0,0,0,1,1,3,0,3,3,0,no
4,1,0,0,2,1,1,1,4,0,4,4,0,no
8,1,1,1,1,1,1,1,8,0,8,8,0,no
8,2,1,1,1,1,1,1,8,0,8,8,0,no
3,1,0,0,1,0,1,1,3,0,3,3,0,no
3,2,0,0,1,0,1,1,3,0,3,3,0,no
3,1,0,0,1,0,1,1,3,0,3,3,0,no
3,2,0,0,1,0,1,1,3,0,3,3,0,no
3,1,0,0,1,0,1,1,3,0,3,3,0,no
3,2,0,0,1,0,1,1,3,0,3,3,0,no
3,1,0,0,1,0,1,1,3,0,3,3,0,no
3,2,0,0,1,0,1,1,3,0,3,3,0,no
3,0,0,0,0,0,1,1,3,0,3,3,0,no
3,0,0,0,2,0,1,1,3,0,3,3,0,no
16,1,4,1,4,0,4,2,17,1,10,4.5,0,no
3,0,0,0,0,0,1,1,3,0,3,3,0,no
4,1,0,0,0,0,1,1,4,0,4,4,0,no
7,0,1,1,2,1,1,1,7,0,7,7,0,no
7,0,1,1,2,1,1,1,7,0,7,7,0,no
28,0,5,1,9,3,4,2,29,1,20,7.5,0,no
16,0,1,1,5,0,4,2,17,1,12,4.5,0,no
6,0,0,0,1,0,1,1,6,0,6,6,0,no
6,0,0,0,1,0,1,1,6,0,6,6,0,no
6,0,0,0,1,0,1,1,6,0,6,6,0,no
10,0,1,1,2,0,1,1,10,0,10,10,0,no
3,0,0,0,1,0,1,1,3,0,3,3,0,no
3,0,0,0,0,0,1,1,3,0,3,3,0,no
3,0,0,0,2,0,1,1,3,0,3,3,0,no
3,0,0,0,2,0,1,1,3,0,3,3,0,no
3,0,0,0,1,0,1,1,3,0,3,3,0,no
3,0,0,0,0,0,1,1,3,0,3,3,0,no
10,0,1,1,1,2,1,1,10,0,10,10,0,no
3,0,0,0,0,0,1,1,3,0,3,3,0,no
7,0,1,1,1,0,1,1,7,0,7,7,0,no
5,0,0,0,1,0,1,1,5,0,5,5,0,no
7,0,1,1,6,0,1,1,7,0,7,7,0,no
7,0,1,1,1,0,1,1,7,0,7,7,0,no
3,0,0,0,1,0,1,1,3,0,3,3,0,no
3,0,0,0,1,0,1,1,3,0,3,3,0,no
3,0,0,0,1,0,1,1,3,0,3,3,0,no
3,0,0,0,1,0,1,1,3,0,3,3,0,no
3,0,0,0,1,0,1,1,3,0,3,3,0,no
3,0,0,0,1,0,1,1,3,0,3,3,0,no
5,0,1,1,0,0,1,1,5,0,5,5,0,no
49,2,9,3,3,3,4,2,50,1,37,12.75,0,no
8,1,1,1,2,0,1,1,8,0,8,8,0,no
18,1,5,1,3,0,4,2,19,1,12,5,0,no
14,1,2,2,4,0,1,1,14,0,14,14,0,no
6,1,0,0,0,0,1,1,6,0,6,6,0,no
9,1,1,1,0,0,1,1,9,0,9,9,0,no
5,1,0,0,0,0,1,1,5,0,5,5,0,no
6,1,0,0,0,0,1,1,6,0,6,6,0,no
13,1,2,2,1,0,1,1,13,0,13,13,0,no
10,1,1,1,1,0,1,1,10,0,10,10,0,no
0,0,0,0,0,0,1,1,0,0,0,0,0,no
0,0,0,0,0,0,1,1,0,0,0,0,0,no
0,0,0,0,0,0,1,1,0,0,0,0,0,no
0,0,0,0,1,0,1,1,0,0,0,0,0,no
0,0,0,0,1,0,1,1,0,0,0,0,0,no
0,0,0,0,0,0,1,1,0,0,0,0,0,no
0,0,0,0,0,0,1,1,0,0,0,0,0,no
0,0,0,0,0,0,1,1,0,0,0,0,0,no
0,0,0,0,0,0,1,1,0,0,0,0,0,no
3,1,0,0,0,0,1,1,3,0,3,3,0,no
2,1,0,0,1,0,1,1,2,0,2,2,1,no
3,0,0,0,0,0,1,1,3,0,3,3,1,no
3,0,0,0,0,0,1,1,3,0,3,3,1,no
3,0,0,0,2,0,1,1,3,0,3,3,1,no
3,0,0,0,0,0,1,1,3,0,3,3,0,no
3,0,0,0,1,0,1,1,3,0,3,3,1,no
3,0,0,0,1,0,1,1,3,0,3,3,0,no
15,0,3,1,3,1,3,1,16,1,12,5.666667,1,no
3,0,0,0,1,0,2,1,4,1,3,2.5,0,no
3,0,0,0,1,0,2,1,4,1,3,2.5,1,no
4,0,0,0,1,0,2,1,4,0,3,2,1,no
3,0,0,0,1,0,1,1,3,0,3,3,1,no
15,0,3,1,2,1,2,1,15,0,8,7.5,1,no
3,0,0,0,0,0,1,1,3,0,3,3,1,no
3,1,0,0,1,0,1,1,3,0,3,3,1,no
3,0,0,0,0,0,1,1,3,0,3,3,1,no
4,1,0,0,2,1,1,1,4,0,4,4,0,no
8,1,1,1,1,1,1,1,8,0,8,8,1,no
8,2,1,1,1,1,1,1,8,0,8,8,1,no
3,1,0,0,1,0,1,1,3,0,3,3,1,no
3,2,0,0,1,0,1,1,3,0,3,3,1,no
3,1,0,0,1,0,1,1,3,0,3,3,1,no
3,2,0,0,1,0,1,1,3,0,3,3,1,no
3,1,0,0,1,0,1,1,3,0,3,3,1,no
3,2,0,0,1,0,1,1,3,0,3,3,1,no
3,1,0,0,1,0,1,1,3,0,3,3,1,no
3,2,0,0,1,0,1,1,3,0,3,3,1,no
3,0,0,0,0,0,1,1,3,0,3,3,1,no
3,0,0,0,2,0,1,1,3,0,3,3,0,no
10,1,2,1,2,0,3,1,11,1,7,4,1,no
3,0,0,0,0,0,2,1,3,0,2,1.5,1,no
4,1,0,0,0,0,1,1,4,0,4,4,0,no
7,0,1,1,2,1,2,1,7,0,6,3.5,1,no
7,0,1,1,2,1,2,1,7,0,6,3.5,1,no
20,0,3,1,7,3,2,1,20,0,12,10,1,no
12,0,1,1,3,0,2,1,12,0,7,6,1,no
6,0,0,0,1,0,2,1,6,0,5,3,0,no
10,0,1,1,2,0,2,1,10,0,5,5,1,no
3,0,0,0,1,0,2,1,4,1,3,2.5,1,no
3,0,0,0,0,0,2,1,5,2,5,3.5,1,no
3,0,0,0,2,0,1,1,3,0,3,3,1,no
3,0,0,0,2,0,1,1,3,0,3,3,0,no
3,0,0,0,1,0,1,1,3,0,3,3,1,no
3,0,0,0,0,0,2,1,4,1,3,2.5,0,no
7,0,1,1,1,0,2,1,7,0,4,3.5,1,no
5,0,0,0,1,0,1,1,5,0,5,5,0,no
7,0,1,1,6,0,1,1,7,0,7,7,0,no
7,0,1,1,1,0,1,1,7,0,7,7,0,no
3,0,0,0,1,0,2,1,4,1,3,2.5,0,no
3,0,0,0,1,0,2,1,4,1,3,2.5,1,no
3,0,0,0,1,0,1,1,3,0,3,3,0,no
9,0,2,1,2,0,2,1,9,0,6,4.5,1,no
5,0,1,1,0,0,1,1,5,0,5,5,0,no
37,2,7,3,3,3,3,1,37,0,29,12.333333,1,no
8,1,1,1,2,0,1,1,8,0,8,8,1,no
12,1,3,1,3,0,2,1,12,0,9,6,1,no
14,1,2,2,4,0,2,1,14,0,9,7,1,no
6,1,0,0,0,0,2,1,6,0,5,3,0,no
13,1,2,2,1,0,2,1,13,0,8,6.5,1,no
10,1,1,1,1,0,2,1,10,0,5,5,1,no
0,0,0,0,0,0,1,1,0,0,0,0,0,no
0,0,0,0,1,0,1,1,0,0,0,0,0,no
0,0,0,0,1,0,1,1,0,0,0,0,0,no
0,0,0,0,0,0,1,1,0,0,0,0,0,no
0,0,0,0,0,0,1,1,0,0,0,0,0,no
3,1,0,0,0,0,1,1,3,0,3,3,0,no
2,1,0,0,1,0,1,1,2,0,2,2,1,no
3,0,0,0,0,0,1,1,3,0,3,3,1,no
3,0,0,0,0,0,1,1,3,0,3,3,1,no
3,0,0,0,2,0,1,1,3,0,3,3,1,no
12,0,2,1,2,1,2,1,13,1,12,7,1,no
3,0,0,0,0,0,1,1,3,0,3,3,1,no
3,0,0,0,1,0,2,1,4,1,3,2.5,1,no
3,0,0,0,0,0,2,1,3,0,2,1.5,1,no
3,0,0,0,1,0,1,1,3,0,3,3,1,no
11,0,2,1,2,1,2,1,11,0,6,5.5,1,no
3,0,0,0,0,0,1,1,3,0,3,3,1,no
3,1,0,0,1,0,1,1,3,0,3,3,1,no
3,0,0,0,0,0,1,1,3,0,3,3,1,no
4,1,0,0,2,1,1,1,4,0,4,4,0,no
8,1,1,1,1,1,1,1,8,0,8,8,1,no
8,2,1,1,1,1,1,1,8,0,8,8,1,no
3,1,0,0,1,0,1,1,3,0,3,3,1,no
3,2,0,0,1,0,1,1,3,0,3,3,1,no
3,1,0,0,1,0,1,1,3,0,3,3,1,no
3,2,0,0,1,0,1,1,3,0,3,3,1,no
3,1,0,0,1,0,1,1,3,0,3,3,1,no
3,2,0,0,1,0,1,1,3,0,3,3,1,no
3,1,0,0,1,0,1,1,3,0,3,3,1,no
3,2,0,0,1,0,1,1,3,0,3,3,1,no
3,0,0,0,0,0,1,1,3,0,3,3,1,no
3,0,0,0,2,0,1,1,3,0,3,3,0,no
7,1,1,1,1,0,2,1,8,1,7,4.5,1,no
3,0,0,0,0,0,2,1,3,0,2,1.5,1,no
4,1,0,0,0,0,1,1,4,0,4,4,0,no
7,0,1,1,2,1,2,1,7,0,6,3.5,1,no
7,0,1,1,2,1,2,1,7,0,6,3.5,1,no
12,0,1,1,6,3,2,1,12,0,8,6,1,no
6,0,0,0,1,0,2,1,7,1,7,4,1,no
6,0,0,0,1,0,2,1,6,0,5,3,1,no
3,0,0,0,1,0,2,1,4,1,3,2.5,1,no
3,0,0,0,0,0,2,1,5,2,5,3.5,1,no
3,0,0,0,2,0,1,1,3,0,3,3,1,no
3,0,0,0,2,0,1,1,3,0,3,3,0,no
3,0,0,0,1,0,1,1,3,0,3,3,1,no
3,0,0,0,0,0,2,1,4,1,3,2.5,1,no
3,0,0,0,1,0,2,1,4,1,3,2.5,1,no
3,0,0,0,1,0,1,1,3,0,3,3,0,no
6,0,1,1,2,0,2,1,6,0,3,3,1,no
4,0,1,1,1,0,1,1,4,0,4,4,0,no
27,2,5,3,1,2,2,1,27,0,24,13.5,1,no
8,1,1,1,2,0,1,1,8,0,8,8,1,no
9,1,2,1,3,0,1,1,9,0,9,9,1,no
9,1,1,1,0,0,2,1,9,0,8,4.5,1,no
0,0,0,0,0,0,1,1,0,0,0,0,0,no
0,0,0,0,0,0,1,1,0,0,0,0,0,no
15,1,2,2,1,6,1,1,15,0,15,15,0,no
7,1,1,1,0,2,1,1,7,0,7,7,0,no
14,1,2,2,1,6,1,1,14,0,14,14,0,no
19,2,5,2,0,3,1,1,19,0,19,19,0,no
14,2,4,2,1,3,1,1,14,0,14,14,0,no
7,1,1,1,0,2,1,1,7,0,7,7,0,no
3,2,0,0,0,0,1,1,3,0,3,3,0,no
6,2,0,0,0,1,1,1,6,0,6,6,0,no
13,1,1,1,0,3,1,1,13,0,13,13,0,no
16,3,4,2,1,5,1,1,16,0,16,16,0,no
3,1,0,0,0,0,1,1,3,0,3,3,0,no
3,2,0,0,0,0,1,1,3,0,3,3,0,no
6,3,0,0,1,3,1,1,6,0,6,6,0,no
3,1,0,0,0,0,1,1,3,0,3,3,0,no
3,2,0,0,0,0,1,1,3,0,3,3,0,no
7,1,1,1,0,0,1,1,7,0,7,7,0,no
3,1,0,0,0,0,1,1,3,0,3,3,0,no
9,1,1,1,0,1,1,1,9,0,9,9,0,no
10,1,2,1,0,1,1,1,10,0,10,10,0,no
14,1,2,1,0,1,1,1,14,0,14,14,0,no
5,1,0,0,0,1,1,1,5,0,5,5,0,no
15,2,1,1,1,0,4,2,20,5,12,6.25,1,no
4,3,0,0,0,1,1,1,4,0,4,4,0,no
8,0,0,0,0,0,2,1,8,0,4,4,0,no
8,0,0,0,0,0,1,1,8,0,8,8,0,no
24,0,4,3,0,10,3,1,24,0,19,8,1,no
3,0,0,0,0,0,1,1,3,0,3,3,0,no
3,0,0,0,0,0,1,1,3,0,3,3,0,no
3,0,0,0,0,0,2,1,4,1,3,2.5,1,no
3,0,0,0,0,0,1,1,3,0,3,3,0,no
3,0,0,0,0,0,1,1,3,0,3,3,0,no
22,2,2,1,0,1,4,1,23,1,13,6,0,no
69,1,12,3,2,16,3,1,69,0,38,23,0,no
22,1,2,1,0,1,2,1,22,0,12,11,0,no
22,1,2,1,0,3,4,1,30,8,20,9.5,0,no
3,0,0,0,0,0,2,1,4,1,3,2.5,0,no
3,0,0,0,0,0,1,1,3,0,3,3,0,no
22,1,2,1,0,1,2,1,22,0,17,11,0,no
3,2,0,0,0,0,1,1,3,0,3,3,0,no
3,2,0,0,0,0,1,1,3,0,3,3,0,no
3,2,0,0,0,0,1,1,3,0,3,3,0,no
3,2,0,0,0,0,1,1,3,0,3,3,0,no
7,2,1,1,0,2,2,1,7,0,4,3.5,0,no
7,2,1,1,0,0,1,1,7,0,7,7,0,no
7,2,1,1,0,0,1,1,7,0,7,7,0,no
7,2,1,1,0,0,1,1,7,0,7,7,0,no
3,2,0,0,0,0,1,1,3,0,3,3,0,no
7,2,1,1,0,0,1,1,7,0,7,7,0,no
4,2,0,0,0,0,1,1,4,0,4,4,0,no
5,0,0,0,0,1,1,1,5,0,5,5,0,no
5,1,1,1,0,0,2,1,5,0,3,2.5,0,no
8,0,2,2,0,0,1,1,8,0,8,8,0,no
6,1,0,0,1,0,1,1,6,0,6,6,0,no
3,0,0,0,0,0,1,1,3,0,3,3,0,no
6,1,0,0,1,0,1,1,6,0,6,6,0,no
3,1,0,0,0,0,1,1,3,0,3,3,0,no
14,1,2,2,0,4,1,1,14,0,14,14,0,no
3,0,0,0,0,0,1,1,3,0,3,3,0,no
27,0,1,1,0,0,2,1,27,0,26,13.5,1,no
6,3,0,0,0,0,1,1,6,0,6,6,0,no
3,1,0,0,1,0,1,1,3,0,3,3,0,no
3,0,0,0,0,0,1,1,3,0,3,3,0,no
3,0,0,0,0,0,1,1,3,0,3,3,0,no
3,0,0,0,0,0,1,1,3,0,3,3,0,no
7,0,1,1,0,1,1,1,7,0,7,7,0,no
47,1,7,2,1,5,4,1,47,0,44,11.75,1,no
3,2,0,0,0,0,1,1,3,0,3,3,0,no
23,0,0,0,0,2,2,1,23,0,22,11.5,0,no
15,0,3,2,1,1,2,1,16,1,15,8.5,0,no
8,1,1,1,1,0,1,1,8,0,8,8,0,no
3,0,0,0,0,0,1,1,3,0,3,3,0,no
5,0,0,0,0,1,1,1,5,0,5,5,0,no
4,1,0,0,0,1,1,1,4,0,4,4,0,no
5,1,1,1,0,0,1,1,5,0,5,5,0,no
39,1,7,3,0,7,3,2,42,3,41,15,0,no
38,0,6,3,2,5,3,1,103,65,87,56,1,no
9,0,1,1,0,1,1,1,9,0,9,9,0,no
14,1,2,1,0,2,1,1,14,0,14,14,0,no
4,5,0,0,0,0,1,1,4,0,4,4,0,no
3,3,0,0,0,0,1,1,3,0,3,3,0,no
24,1,3,1,0,7,3,1,25,1,23,8.666667,0,no
15,1,2,1,0,4,1,1,15,0,15,15,0,no
13,1,1,0,0,4,3,1,15,2,13,5.666667,0,no
15,1,3,1,0,1,2,1,23,8,23,15.5,0,no
11,1,2,1,1,1,2,1,12,1,11,6.5,0,no
10,1,2,1,0,0,1,1,10,0,10,10,0,no
7,1,0,0,0,0,2,1,8,1,7,4.5,1,no
18,1,3,1,0,2,1,1,18,0,18,18,0,no
15,1,3,2,0,3,1,1,15,0,15,15,0,no
9,1,2,2,0,1,1,1,9,0,9,9,0,no
0,1,0,0,0,0,1,1,0,0,0,0,0,no
2,0,0,0,1,0,1,1,2,0,2,2,0,no
3,0,0,0,0,0,1,1,3,0,3,3,0,no
3,1,0,0,0,0,1,1,3,0,3,3,0,no
3,0,0,0,0,0,1,1,3,0,3,3,0,no
3,0,0,0,0,0,1,1,3,0,3,3,0,no
3,1,0,0,0,0,1,1,3,0,3,3,0,no
9,1,1,1,0,1,1,1,9,0,9,9,0,no
24,1,4,3,0,3,1,1,24,0,24,24,0,no
6,1,1,1,0,0,1,1,6,0,6,6,0,no
23,1,4,2,0,5,1,1,23,0,23,23,0,no
60,1,7,3,3,12,3,2,67,7,66,24.666667,1,no
7,5,1,1,0,0,2,1,10,3,10,6.5,1,no
14,1,2,1,0,2,1,1,14,0,14,14,0,no
23,1,4,2,1,1,1,1,23,0,23,23,0,no
29,1,5,3,0,10,1,1,29,0,29,29,0,no
10,1,3,2,1,0,1,1,10,0,10,10,0,no
24,1,5,3,0,1,1,1,24,0,24,24,0,no
7,0,1,1,0,2,2,1,8,1,7,4.5,0,no
21,0,4,3,0,4,2,1,21,0,16,10.5,0,no
44,1,8,4,0,5,2,1,44,0,43,22,0,no
16,1,2,1,0,2,1,1,16,0,16,16,0,no
3,1,0,0,0,0,1,1,3,0,3,3,0,no
17,3,3,2,1,3,1,1,17,0,17,17,0,no
8,4,2,2,0,1,1,1,8,0,8,8,0,no
16,3,4,3,1,3,2,1,16,0,13,8,0,no
3,3,0,0,0,0,1,1,3,0,3,3,0,no
6,4,0,0,0,0,1,1,6,0,6,6,0,no
33,0,8,3,1,4,2,1,34,1,33,17.5,0,no
3,0,1,0,0,0,1,1,3,0,3,3,0,no
43,1,6,4,1,7,1,1,43,0,43,43,0,no
17,0,4,2,0,4,3,1,19,2,18,7,1,no
8,0,1,1,0,1,2,1,21,13,21,17,0,no
9,0,1,1,2,2,1,1,9,0,9,9,0,no
59,1,12,5,0,8,1,1,59,0,59,59,0,no
18,0,4,2,0,1,1,1,18,0,18,18,0,no
11,1,1,1,0,1,1,1,11,0,11,11,0,no
11,1,1,1,0,1,1,1,11,0,11,11,0,no
42,1,6,4,1,7,1,1,42,0,42,42,0,no
4,1,0,0,0,0,1,1,4,0,4,4,0,no
0,1,0,0,0,0,1,1,0,0,0,0,0,no
10,0,0,0,0,2,1,1,10,0,10,10,0,no
10,2,1,1,2,1,2,2,11,1,10,6,0,no
0,0,0,0,0,0,1,1,0,0,0,0,0,no
5,2,0,0,0,0,1,1,5,0,5,5,0,no
15,2,3,1,1,1,2,2,16,1,15,8.5,0,no
6,1,0,0,0,1,2,2,7,1,6,4,0,no
26,1,1,1,0,11,3,3,28,2,26,10,0,no
4,1,0,0,0,1,1,1,4,0,4,4,0,no
5,0,0,0,0,0,1,1,5,0,5,5,0,no
3,5,0,0,0,0,1,1,3,0,3,3,0,no
11,1,1,1,0,5,1,1,11,0,11,11,0,no
18,1,1,1,0,8,2,2,19,1,18,10,0,no
4,1,0,0,0,1,1,1,4,0,4,4,0,no
3,0,0,0,0,0,2,2,4,1,3,2.5,0,no
3,4,0,0,0,0,1,1,3,0,3,3,0,no
10,1,0,0,0,1,1,1,10,0,10,10,0,no
7,0,0,0,0,1,1,1,7,0,7,7,0,no
3,1,0,0,0,0,1,1,3,0,3,3,0,no
17,2,1,1,0,5,1,1,17,0,17,17,0,no
7,1,1,1,0,1,2,2,11,4,11,7.5,0,no
7,0,1,1,0,0,1,1,7,0,7,7,0,no
3,0,0,0,0,0,1,1,3,0,3,3,0,no
3,0,0,0,0,0,1,1,3,0,3,3,0,no
7,0,1,1,0,0,1,1,7,0,7,7,0,no
3,0,0,0,0,0,1,1,3,0,3,3,0,no
3,0,0,0,0,0,1,1,3,0,3,3,0,no
3,0,0,0,0,0,1,1,3,0,3,3,0,no
10,0,2,2,1,2,1,1,10,0,10,10,0,no
3,0,0,0,0,0,1,1,3,0,3,3,0,no
3,0,0,0,0,0,1,1,3,0,3,3,0,no
3,0,0,0,0,0,1,1,3,0,3,3,0,no
3,0,0,0,0,0,1,1,3,0,3,3,0,no
3,0,0,0,0,0,1,1,3,0,3,3,0,no
3,0,0,0,0,0,1,1,3,0,3,3,0,no
3,0,0,0,0,0,1,1,3,0,3,3,0,no
3,0,0,0,0,0,1,1,3,0,3,3,0,no
3,0,0,0,0,0,1,1,3,0,3,3,0,no
3,0,0,0,0,0,1,1,3,0,3,3,0,no
6,0,1,1,0,0,1,1,6,0,6,6,0,no
3,0,0,0,0,0,1,1,3,0,3,3,0,no
3,0,0,0,0,0,1,1,3,0,3,3,0,no
3,0,0,0,0,0,1,1,3,0,3,3,0,no
3,0,0,0,0,0,2,2,4,1,3,2.5,1,no
3,0,0,0,0,0,1,1,3,0,3,3,0,no
6,0,1,1,0,0,1,1,6,0,6,6,0,no
3,0,0,0,0,0,1,1,3,0,3,3,0,no
3,0,0,0,0,0,1,1,3,0,3,3,1,no
3,0,0,0,0,0,1,1,3,0,3,3,0,no
3,0,0,0,0,0,1,1,3,0,3,3,0,no
6,0,1,1,0,0,1,1,6,0,6,6,0,no
3,0,0,0,0,0,1,1,3,0,3,3,0,no
7,0,1,1,1,1,2,2,7,0,4,3.5,0,no
3,1,0,0,0,0,1,1,3,0,3,3,0,no
3,1,0,0,0,0,1,1,3,0,3,3,0,no
3,0,0,0,0,0,1,1,3,0,3,3,0,no
3,1,0,0,0,0,1,1,3,0,3,3,0,no
3,0,0,0,0,0,1,1,3,0,3,3,0,no
3,2,0,0,0,0,1,1,3,0,3,3,0,no
3,1,0,0,0,0,1,1,3,0,3,3,0,no
3,0,0,0,0,0,1,1,3,0,3,3,0,no
3,0,0,0,0,0,1,1,3,0,3,3,0,no
3,0,0,0,0,0,1,1,3,0,3,3,0,no
3,0,0,0,0,0,1,1,3,0,3,3,0,no
4,1,0,0,0,0,1,1,4,0,4,4,0,no
5,0,0,0,0,0,1,1,5,0,5,5,0,no
3,0,0,0,0,0,1,1,3,0,3,3,0,no
7,0,1,1,0,0,1,1,7,0,7,7,0,no
8,0,1,1,0,1,1,1,8,0,8,8,0,no
4,1,0,0,0,0,1,1,4,0,4,4,0,no
18,0,6,3,2,2,2,2,18,0,15,9,0,yes
4,2,0,0,1,0,3,3,6,2,4,2.666667,1,no
3,1,0,0,0,0,1,1,3,0,3,3,0,no
3,1,0,0,0,0,1,1,3,0,3,3,0,no
7,1,2,1,2,1,1,1,7,0,7,7,0,no
14,2,2,1,1,2,1,1,14,0,14,14,0,no
16,3,0,0,0,0,1,1,16,0,16,16,0,no
4,2,0,0,0,0,1,1,4,0,4,4,0,no
4,2,0,0,0,0,1,1,4,0,4,4,0,no
3,1,0,0,0,0,1,1,3,0,3,3,0,no
4,0,0,0,0,0,1,1,4,0,4,4,0,no
0,0,0,0,0,0,1,1,0,0,0,0,0,no
3,1,0,0,0,0,1,1,3,0,3,3,0,no
3,1,0,0,0,0,1,1,3,0,3,3,0,no
3,1,0,0,0,0,1,1,3,0,3,3,0,no
3,0,0,0,0,0,1,1,3,0,3,3,0,no
8,1,1,1,0,1,1,1,8,0,8,8,0,no
3,0,0,0,0,0,1,1,3,0,3,3,0,no
3,0,0,0,0,0,1,1,3,0,3,3,1,no
12,1,2,1,0,1,1,1,12,0,12,12,0,no
5,2,0,0,0,1,1,1,5,0,5,5,0,no
3,0,0,0,0,0,1,1,3,0,3,3,0,no
0,0,0,0,1,0,1,1,0,0,0,0,0,no
0,0,0,0,1,0,1,1,0,0,0,0,0,no
0,0,0,0,1,0,1,1,0,0,0,0,0,no
0,0,0,0,1,0,1,1,0,0,0,0,0,no
0,2,0,0,1,0,1,1,0,0,0,0,0,no
0,3,0,0,1,0,1,1,0,0,0,0,0,no
0,0,0,0,1,0,1,1,0,0,0,0,1,no
0,8,0,0,1,0,1,1,0,0,0,0,0,no
0,0,0,0,1,0,1,1,0,0,0,0,1,no
0,5,0,0,1,0,1,1,0,0,0,0,0,no
12,2,1,1,0,0,3,2,13,1,7,4.666667,1,no
4,2,0,0,0,1,1,1,4,0,4,4,0,no
13,1,2,1,0,0,1,1,13,0,13,13,0,no
8,2,0,0,0,0,1,1,8,0,8,8,0,no
5,1,1,1,0,0,1,1,5,0,5,5,0,no
7,1,1,1,0,1,1,1,7,0,7,7,0,no
7,3,1,1,0,1,1,1,7,0,7,7,0,no
3,3,0,0,0,0,1,1,3,0,3,3,0,no
3,1,0,0,0,0,1,1,3,0,3,3,0,no
17,4,4,1,0,2,2,2,17,0,14,8.5,1,no
6,0,0,0,1,0,1,1,6,0,6,6,0,no
6,1,1,1,0,0,2,2,7,1,6,4,0,no
11,0,2,2,0,2,2,2,12,1,11,6.5,0,no
20,0,4,3,0,1,2,2,20,0,15,10,0,no
3,0,0,0,0,0,1,1,3,0,3,3,1,no
4,8,0,0,0,1,1,1,4,0,4,4,0,no
3,0,0,0,0,0,1,1,3,0,3,3,0,no
3,5,0,0,0,0,3,2,9,6,8,5,0,no
5,0,0,0,0,0,1,1,5,0,5,5,0,no
2,2,0,0,1,0,1,1,2,0,2,2,0,no
2,2,0,0,1,0,1,1,2,0,2,2,0,no
4,2,2,0,1,1,1,1,4,0,4,4,0,no
2,0,0,0,0,0,1,1,2,0,2,2,0,no
19,8,2,2,0,0,1,1,19,0,19,19,0,no
9,0,0,1,0,0,1,1,9,0,9,9,0,no
3,0,0,0,0,0,1,1,3,0,3,3,0,no
8,0,0,1,0,0,3,2,15,7,10,7.333333,0,no
17,0,2,1,1,0,2,1,17,0,15,8.5,0,no
3,0,0,0,0,0,1,1,3,0,3,3,0,no
3,0,0,0,0,0,1,1,3,0,3,3,0,no
3,0,0,0,0,0,1,1,3,0,3,3,0,no
3,0,0,0,0,0,1,1,3,0,3,3,0,no
8,0,0,1,0,0,2,2,8,0,5,4,0,no
22,1,4,1,1,0,1,1,22,0,22,22,0,no
14,2,2,1,0,1,4,2,17,3,14,5,0,no
9,0,2,1,1,0,2,2,10,1,9,5.5,0,no
20,0,2,2,3,2,6,3,22,2,9,4,0,no
3,0,0,0,0,0,3,3,5,2,3,2.333333,0,no
6,2,1,1,0,0,2,2,7,1,6,4,0,no
3,2,0,0,0,0,2,2,3,0,2,1.5,0,no
15,0,2,1,0,1,4,2,16,1,12,4.25,0,no
3,1,0,0,0,0,1,1,3,0,3,3,0,no
30,1,3,2,0,1,3,1,30,0,12,10,0,no
10,0,0,0,0,1,2,2,10,0,8,5,0,no
3,0,0,0,0,0,1,1,3,0,3,3,0,no
3,0,0,0,0,0,1,1,3,0,3,3,0,no
2,0,0,0,0,0,1,1,2,0,2,2,0,no
2,0,0,0,0,0,1,1,2,0,2,2,0,no
3,0,0,0,0,0,1,1,3,0,3,3,0,no
0,0,0,0,1,0,1,1,0,0,0,0,0,no
5,3,0,0,0,0,1,1,5,0,5,5,0,no
22,0,2,1,0,3,1,1,22,0,22,22,0,no
3,0,0,0,0,0,1,1,3,0,3,3,0,no
3,0,0,0,0,0,1,1,3,0,3,3,0,no
6,5,0,0,0,0,1,1,6,0,6,6,0,no
7,0,1,1,0,1,4,3,12,5,8,4.25,0,no
3,0,0,0,0,0,1,1,3,0,3,3,0,no
4,2,0,0,0,0,1,1,4,0,4,4,0,no
18,2,1,1,0,0,2,2,18,0,16,9,0,no
0,2,0,0,0,0,1,1,0,0,0,0,0,no
4,2,0,0,0,0,2,2,4,0,3,2,0,no
8,2,1,1,0,0,2,2,8,0,7,4,0,no
0,1,0,0,1,0,1,1,0,0,0,0,0,no
7,5,0,0,0,0,1,1,7,0,7,7,0,no
34,2,1,1,0,4,1,1,34,0,34,34,0,no
4,2,0,0,0,0,1,1,4,0,4,4,0,no
15,2,0,0,0,0,1,1,15,0,15,15,0,no
4,2,0,0,0,0,1,1,4,0,4,4,0,no
5,2,0,0,0,0,1,1,5,0,5,5,0,no
4,3,0,0,0,0,1,1,4,0,4,4,0,no
9,2,1,1,0,1,2,2,9,0,8,4.5,0,no
3,2,0,0,0,0,2,2,3,0,2,1.5,0,no
3,2,0,0,1,0,2,2,3,0,2,1.5,0,no
0,2,0,0,2,0,1,1,0,0,0,0,0,no
3,1,0,0,0,0,1,1,3,0,3,3,0,no
3,0,0,0,0,0,1,1,3,0,3,3,0,no
3,0,0,0,0,0,2,1,4,1,3,2.5,0,no
3,0,0,0,0,0,1,1,3,0,3,3,0,no
0,0,0,0,1,0,1,1,0,0,0,0,0,no
5,3,0,0,0,0,2,2,5,0,4,2.5,0,no
8,2,1,1,0,2,1,1,8,0,8,8,0,no
22,2,1,1,0,3,4,3,24,2,18,6.5,0,no
4,2,0,0,0,0,2,2,4,0,3,2,0,no
4,2,0,0,0,0,1,1,4,0,4,4,0,no
8,6,0,0,0,0,1,1,8,0,8,8,0,no
90,2,8,2,4,20,10,3,113,23,42,13.6,0,no
5,2,0,0,1,0,3,2,5,0,3,1.666667,0,no
59,2,6,2,2,14,7,1,81,22,46,14.714286,0,no
2,2,0,0,0,0,1,1,2,0,2,2,0,no
7,2,0,0,1,2,1,1,7,0,7,7,0,no
5,0,0,0,0,0,3,2,6,1,4,2.333333,0,no
5,1,1,1,0,0,1,1,5,0,5,5,0,no
15,1,3,3,1,3,3,2,15,0,9,5,0,no
3,0,0,0,0,0,1,1,3,0,3,3,0,no
3,0,0,0,0,0,1,1,3,0,3,3,0,no
42,3,9,5,3,5,2,1,42,0,27,21,0,no
15,2,4,3,2,1,2,1,15,0,10,7.5,0,no
3,1,0,0,0,0,1,1,3,0,3,3,0,no
7,1,1,1,0,0,1,1,7,0,7,7,0,no
0,1,0,0,1,0,1,1,0,0,0,0,0,no
7,5,0,0,0,0,1,1,7,0,7,7,0,no
34,2,1,1,0,4,4,3,35,1,20,9,0,no
4,2,0,0,0,0,2,2,4,0,3,2,0,no
15,2,0,0,0,0,4,3,16,1,10,4.25,0,no
4,2,0,0,0,0,1,1,4,0,4,4,0,no
5,2,0,0,0,0,1,1,5,0,5,5,0,no
0,1,0,0,1,0,1,1,0,0,0,0,0,no
0,0,0,0,1,0,1,1,0,0,0,0,0,no
3,0,0,0,0,0,1,1,3,0,3,3,0,no
3,0,0,0,0,0,1,1,3,0,3,3,0,no
3,1,0,0,0,0,1,1,3,0,3,3,0,no
4,2,0,0,0,1,1,1,4,0,4,4,0,no
7,1,1,1,1,1,1,1,7,0,7,7,0,no
3,2,0,0,0,0,1,1,3,0,3,3,0,no
3,0,0,0,0,0,1,1,3,0,3,3,0,no
3,0,0,0,0,0,1,1,3,0,3,3,0,no
21,2,3,1,1,5,1,1,21,0,21,21,0,no
5,2,0,0,0,2,1,1,5,0,5,5,0,no
3,0,0,0,0,0,1,1,3,0,3,3,0,no
22,3,4,2,2,4,1,1,22,0,22,22,0,no
0,2,0,0,0,0,1,1,0,0,0,0,0,no
0,0,0,0,0,0,1,1,0,0,0,0,0,no
0,0,0,0,0,0,1,1,0,0,0,0,0,no
0,3,0,0,0,0,1,1,0,0,0,0,0,no
35,2,7,3,2,5,2,1,53,18,53,35.5,0,no
0,0,0,0,0,0,1,1,0,0,0,0,0,no
0,0,0,0,0,0,1,1,0,0,0,0,0,no
0,0,0,0,0,0,1,1,0,0,0,0,0,no
0,0,0,0,0,0,1,1,0,0,0,0,0,no
18,2,2,1,0,1,1,1,18,0,18,18,0,no
3,0,0,0,0,0,1,1,3,0,3,3,0,no
46,0,5,2,0,5,1,1,46,0,46,46,0,no
29,3,6,2,0,0,1,1,29,0,29,29,0,no
11,4,2,2,0,1,1,1,11,0,11,11,0,no
4,5,0,0,1,0,1,1,4,0,4,4,0,no
3,0,0,0,0,0,1,1,3,0,3,3,0,no
3,0,0,0,0,0,1,1,3,0,3,3,0,no
3,0,0,0,0,0,1,1,3,0,3,3,0,no
19,0,4,1,0,0,1,1,19,0,19,19,0,no
14,0,3,2,0,0,1,1,14,0,14,14,0,no
4,0,0,0,0,1,1,1,4,0,4,4,0,no
3,0,0,0,0,0,1,1,3,0,3,3,0,no
5,3,0,0,0,1,1,1,5,0,5,5,0,no
4,2,0,0,0,0,1,1,4,0,4,4,0,no
2,0,0,0,0,0,1,1,2,0,2,2,0,no
20,5,3,2,0,2,1,1,20,0,20,20,0,no
21,5,3,3,1,1,1,1,21,0,21,21,0,no
3,2,0,0,0,0,1,1,3,0,3,3,0,no
3,2,0,0,0,0,1,1,3,0,3,3,0,no
3,0,0,0,0,0,1,1,3,0,3,3,0,no
35,4,5,2,0,6,1,1,35,0,35,35,0,no
15,3,1,1,0,3,1,1,15,0,15,15,0,no
40,6,5,2,0,9,1,1,40,0,40,40,0,no
3,6,0,0,0,0,1,1,3,0,3,3,0,no
10,1,2,1,0,1,1,1,10,0,10,10,0,no
23,6,4,3,0,2,1,1,23,0,23,23,0,no
18,1,2,1,0,7,1,1,18,0,18,18,0,no
29,3,5,2,0,5,1,1,29,0,29,29,0,no
15,3,3,3,1,0,1,1,15,0,15,15,0,no
13,3,3,2,0,0,1,1,16,0,16,16,0,no
16,3,4,3,0,0,1,1,16,0,16,16,0,no
8,3,1,1,0,1,1,1,8,0,8,8,0,no
30,3,4,2,0,8,1,1,30,0,30,30,0,no
3,1,0,0,0,0,1,1,3,0,3,3,0,no
2,0,0,0,0,0,1,1,2,0,2,2,0,no
21,4,3,3,1,0,1,1,21,0,21,21,0,no
26,3,4,2,1,3,1,1,26,0,26,26,0,no
25,5,4,4,0,1,1,1,25,0,25,25,0,no
21,3,4,2,1,3,1,1,21,0,21,21,0,no
16,3,3,3,1,0,1,1,16,0,16,16,0,no
18,3,4,4,0,0,1,1,18,0,18,18,0,no
3,1,0,0,0,0,1,1,3,0,3,3,0,no
2,0,0,0,0,0,1,1,2,0,2,2,0,no
21,4,3,3,1,0,1,1,21,0,21,21,0,no
21,5,2,1,0,7,1,1,21,0,21,21,0,no
19,3,3,2,0,1,1,1,19,0,19,19,0,no
24,5,4,4,0,1,1,1,24,0,24,24,0,no
14,3,3,2,0,1,1,1,14,0,14,14,0,no
16,3,3,3,1,0,1,1,16,0,16,16,0,no
17,3,4,4,0,0,1,1,17,0,17,17,0,no
5,0,1,1,0,0,1,1,5,0,5,5,0,no
6,2,0,0,1,0,1,1,6,0,6,6,0,no
3,0,0,0,0,0,1,1,3,0,3,3,0,no
3,0,0,0,0,0,1,1,3,0,3,3,0,no
0,5,0,0,1,0,1,1,0,0,0,0,0,no
0,5,0,0,1,0,1,1,0,0,0,0,0,no
0,0,0,0,1,0,1,1,0,0,0,0,0,no
0,4,0,0,1,0,1,1,0,0,0,0,0,no
0,3,0,0,1,0,1,1,0,0,0,0,0,no
0,6,0,0,1,0,1,1,0,0,0,0,0,no
0,6,0,0,1,0,1,1,0,0,0,0,0,no
0,4,0,0,1,0,1,1,0,0,0,0,0,no
0,3,0,0,1,0,1,1,0,0,0,0,0,no
0,5,0,0,1,0,1,1,0,0,0,0,0,no
0,4,0,0,1,0,1,1,0,0,0,0,0,no
0,3,0,0,1,0,1,1,0,0,0,0,0,no
0,5,0,0,1,0,1,1,0,0,0,0,0,no
11,2,3,1,1,0,1,1,11,0,11,11,0,no
3,0,0,0,0,0,1,1,3,0,3,3,0,no
26,0,2,1,0,3,1,1,26,0,26,26,0,no
8,3,1,1,0,0,1,1,8,0,8,8,0,no
3,0,0,0,0,0,1,1,3,0,3,3,0,no
3,0,0,0,0,0,1,1,3,0,3,3,0,no
3,0,0,0,0,0,1,1,3,0,3,3,0,no
2,0,0,0,0,0,1,1,2,0,2,2,0,no
3,0,0,0,0,0,1,1,3,0,3,3,0,no
4,0,0,0,0,1,1,1,4,0,4,4,0,no
3,0,0,0,0,0,1,1,3,0,3,3,0,no
4,2,0,0,0,0,1,1,4,0,4,4,0,no
2,0,0,0,0,0,1,1,2,0,2,2,0,no
19,5,3,3,0,1,2,1,20,1,19,10.5,0,no
34,5,7,4,0,2,1,1,34,0,34,34,0,no
3,0,0,0,0,0,1,1,3,0,3,3,0,no
29,4,4,1,0,3,2,1,30,1,29,15.5,0,no
61,3,10,2,2,11,3,1,63,2,61,21.666667,0,no
34,6,7,4,0,2,1,1,34,0,34,34,0,no
3,2,0,0,0,0,1,1,3,0,3,3,0,no
3,2,0,0,0,0,1,1,3,0,3,3,0,no
3,6,0,0,0,0,1,1,3,0,3,3,0,no
55,4,10,2,2,10,3,1,57,2,55,19.666667,0,no
4,1,1,1,1,0,1,1,4,0,4,4,0,no
27,5,5,1,0,3,3,1,29,2,27,10.333333,0,no
24,5,4,1,0,3,3,1,26,2,24,9.333333,0,no
17,4,4,4,0,1,3,1,18,1,14,6.333333,0,no
14,4,3,3,0,1,3,1,16,2,14,6,0,no
17,3,4,4,0,1,2,1,17,0,14,8.5,0,no
4,2,0,0,0,0,1,1,4,0,4,4,0,no
2,0,0,0,0,0,1,1,2,0,2,2,0,no
19,4,2,2,0,2,1,1,19,0,19,19,0,no
32,4,6,3,0,2,2,1,33,1,32,17,0,no
3,1,0,0,0,0,1,1,3,0,3,3,0,no
26,3,3,1,2,4,1,1,26,0,26,26,0,no
30,5,5,3,0,2,2,1,31,1,30,16,0,no
20,5,3,1,2,3,1,1,20,0,20,20,0,no
16,4,3,3,0,1,1,1,16,0,16,16,0,no
13,4,2,2,0,1,1,1,13,0,13,13,0,no
18,3,4,3,0,1,1,1,18,0,18,18,0,no
4,2,0,0,0,0,1,1,4,0,4,4,0,no
2,0,0,0,0,0,1,1,2,0,2,2,0,no
20,4,2,1,1,3,1,1,20,0,20,20,0,no
29,4,5,3,0,3,2,1,30,1,29,15.5,0,no
3,1,0,0,0,0,1,1,3,0,3,3,0,no
12,5,1,1,0,2,1,1,12,0,12,12,0,no
18,3,2,1,0,2,1,1,18,0,18,18,0,no
32,5,5,3,0,4,2,1,33,1,32,17,0,no
12,5,2,1,0,1,1,1,12,0,12,12,0,no
16,4,3,3,0,1,1,1,16,0,16,16,0,no
12,4,2,1,0,1,1,1,12,0,12,12,0,no
14,3,3,3,0,1,1,1,14,0,14,14,0,no
3,1,0,0,0,0,2,2,4,1,3,2.5,0,no
3,2,0,0,0,0,1,1,3,0,3,3,0,no
13,3,0,0,1,0,1,1,13,0,13,13,0,no
5,3,0,0,0,0,2,2,6,1,5,3.5,0,no
3,0,0,0,0,0,1,1,3,0,3,3,0,no
13,3,2,0,1,4,1,1,13,0,13,13,0,no
10,5,0,0,0,1,2,1,10,0,9,5,0,no
6,0,1,1,0,0,1,1,6,0,6,6,0,no
21,1,3,2,0,3,3,2,22,1,19,7.666667,0,no
3,2,0,0,0,0,2,2,4,1,3,2.5,0,no
7,3,1,1,0,0,1,1,7,0,7,7,0,no
21,0,4,4,0,1,2,2,21,0,14,10.5,0,no
17,0,3,2,1,1,3,3,18,1,9,6.333333,1,no
35,1,7,2,2,8,3,3,36,1,22,12.333333,1,no
20,1,3,2,0,1,1,1,20,0,20,20,0,no
29,0,6,2,2,0,5,2,35,6,24,8.2,1,no
39,0,3,2,0,4,5,2,40,1,36,8.2,1,no
21,0,5,2,1,0,1,1,21,0,21,21,0,no
29,0,2,2,0,2,7,3,30,1,24,4.428571,1,no
3,2,0,0,0,0,1,1,3,0,3,3,0,no
5,1,1,1,0,0,2,2,5,0,3,2.5,1,no
3,1,0,0,0,0,1,1,3,0,3,3,0,no
3,0,0,0,0,0,1,1,3,0,3,3,0,no
3,0,0,0,0,0,2,1,4,1,3,2.5,0,no
3,0,0,0,0,0,1,1,3,0,3,3,0,no
3,0,0,0,0,0,1,1,3,0,3,3,0,no
3,0,0,0,0,0,1,1,3,0,3,3,0,no
3,0,0,0,0,0,1,1,3,0,3,3,0,no
3,0,0,0,0,0,1,1,3,0,3,3,0,no
3,0,0,0,0,0,1,1,3,0,3,3,0,no
3,0,0,0,0,0,1,1,3,0,3,3,0,no
0,0,0,0,1,0,1,1,0,0,0,0,0,no
0,0,0,0,1,0,1,1,0,0,0,0,0,no
0,0,0,0,1,0,1,1,0,0,0,0,0,no
0,0,0,0,1,0,1,1,0,0,0,0,0,no
0,0,0,0,1,0,1,1,0,0,0,0,0,no
0,0,0,0,1,0,1,1,0,0,0,0,0,no
0,0,0,0,1,0,1,1,0,0,0,0,0,no
5,3,0,0,0,0,1,1,5,0,5,5,0,no
12,0,1,1,0,1,1,1,12,0,12,12,0,no
6,0,1,1,0,1,1,1,6,0,6,6,0,no
3,0,0,0,0,0,1,1,3,0,3,3,0,no
3,0,0,0,0,0,1,1,3,0,3,3,0,no
3,0,0,0,0,0,1,1,3,0,3,3,0,no
3,0,0,0,0,0,1,1,3,0,3,3,0,no
3,1,0,0,0,0,1,1,3,0,3,3,0,no
3,0,0,0,0,0,1,1,3,0,3,3,0,no
3,0,0,0,0,0,1,1,3,0,3,3,0,no
3,0,0,0,0,0,1,1,3,0,3,3,0,no
8,6,1,0,0,0,1,1,8,0,8,8,0,no
3,0,0,0,0,0,1,1,3,0,3,3,0,no
3,0,0,0,0,0,1,1,3,0,3,3,0,no
3,0,0,0,0,0,1,1,3,0,3,3,0,no
3,0,0,0,0,0,1,1,3,0,3,3,0,no
3,0,0,0,0,0,1,1,3,0,3,3,0,no
3,0,0,0,0,0,1,1,3,0,3,3,0,no
2,0,0,0,1,0,1,1,2,0,2,2,0,no
3,0,0,0,0,0,1,1,3,0,3,3,0,no
11,0,3,2,0,3,1,1,11,0,11,11,0,no
25,1,6,3,0,1,2,2,25,0,21,12.5,0,no
6,4,0,0,0,0,1,1,6,0,6,6,0,no
14,2,2,2,0,0,2,2,16,2,16,9,0,no
5,2,0,0,0,1,2,2,6,1,5,3.5,0,no
5,2,1,1,0,0,1,1,5,0,5,5,0,no
10,2,1,1,0,2,2,2,12,2,12,7,0,no
16,2,2,1,0,4,2,2,16,0,15,8,0,no
6,3,0,0,1,2,2,2,8,2,8,5,0,no
8,1,1,1,0,0,2,2,10,2,10,6,0,no
9,5,0,0,0,0,2,1,9,0,8,4.5,0,no
3,3,0,0,0,0,1,1,3,0,3,3,0,no
4,3,0,0,0,1,1,1,4,0,4,4,0,no
3,3,0,0,0,0,1,1,3,0,3,3,0,no
3,1,0,0,0,0,1,1,3,0,3,3,0,no
2,1,0,0,0,0,1,1,2,0,2,2,0,no
7,1,1,1,0,1,1,1,7,0,7,7,0,no
3,2,0,0,0,0,2,2,18,15,18,16.5,0,no
39,3,3,1,4,3,1,1,39,0,39,39,0,no
2,2,0,0,0,0,1,1,2,0,2,2,0,no
81,1,12,3,4,12,2,1,82,1,81,41.5,0,no
7,1,1,1,0,1,1,1,7,0,7,7,0,no
8,1,1,1,0,1,1,1,8,0,8,8,0,no
3,3,0,0,0,0,2,2,4,1,3,2.5,0,no
3,1,0,0,0,0,1,1,3,0,3,3,0,no
41,7,5,1,2,5,3,2,42,1,40,14.333333,0,no
3,1,0,0,0,0,1,1,3,0,3,3,0,no
27,3,4,2,4,2,1,1,27,0,27,27,0,no
3,1,0,0,0,0,1,1,3,0,3,3,0,no
3,4,0,0,0,0,1,1,3,0,3,3,0,no
3,1,0,0,0,0,1,1,3,0,3,3,0,no
3,2,0,0,0,0,1,1,3,0,3,3,0,no
7,0,1,1,0,0,1,1,7,0,7,7,0,no
3,2,0,0,1,0,1,1,3,0,3,3,0,no
3,2,0,0,1,0,1,1,3,0,3,3,0,no
3,2,0,0,1,0,1,1,3,0,3,3,0,no
2,2,0,0,0,0,1,1,2,0,2,2,0,no
18,2,1,1,2,1,1,1,18,0,18,18,0,no
3,2,0,0,1,0,1,1,3,0,3,3,0,no
2,2,0,0,0,0,1,1,2,0,2,2,0,no
40,4,5,2,3,4,2,1,41,1,40,21,0,no
4,2,0,0,1,0,1,1,4,0,4,4,0,no
11,2,1,1,1,2,1,1,11,0,11,11,0,no
2,3,0,0,2,0,1,1,2,0,2,2,0,no
35,3,5,1,2,4,2,1,35,0,34,17.5,0,no
3,2,0,0,0,0,1,1,3,0,3,3,0,no
5,2,0,0,0,0,1,1,5,0,5,5,0,no
3,3,0,0,0,0,1,1,3,0,3,3,0,no
37,2,6,2,3,7,1,1,37,0,37,37,0,no
13,2,2,2,0,2,3,1,24,11,23,11.666667,0,no
33,3,6,3,2,5,1,1,33,0,33,33,0,no
54,4,6,2,4,9,2,1,54,0,50,27,0,no
20,0,2,1,0,0,3,2,34,14,33,16,0,no
3,2,0,0,0,0,1,1,3,0,3,3,0,no
7,2,1,1,0,0,2,1,8,1,7,4.5,0,no
26,3,5,2,3,5,4,2,50,1,40,12.75,0,no
49,3,6,2,4,9,4,2,50,1,40,12.75,0,no
31,4,4,2,2,7,4,2,32,1,22,8.25,0,no
3,3,0,0,0,0,1,1,3,0,3,3,0,no
24,1,2,1,2,5,2,1,24,0,23,12,0,no
9,0,1,1,1,1,1,1,9,0,9,9,0,no
17,3,2,1,2,3,2,1,17,0,16,8.5,0,no
4,2,0,0,0,0,1,1,4,0,4,4,0,no
21,0,4,2,0,5,2,1,26,5,26,15.5,0,no
3,1,0,0,0,0,1,1,3,0,3,3,0,no
4,2,0,0,0,0,1,1,4,0,4,4,0,no
4,0,0,0,0,0,1,1,4,0,4,4,0,no
4,1,0,0,0,0,1,1,4,0,4,4,0,no
3,0,0,0,0,0,5,4,53,50,49,20.6,1,no
3,1,0,0,0,0,3,2,5,2,4,2.333333,1,no
7,4,0,0,0,0,1,1,7,0,7,7,0,no
73,3,11,2,6,7,7,3,78,5,66,11.857143,1,no
8,0,2,1,0,0,2,2,9,1,8,5,1,no
13,1,2,2,0,2,2,2,14,1,13,7.5,0,no
11,3,1,1,2,1,1,1,11,0,11,11,0,no
40,4,6,2,3,4,6,3,45,5,39,8.333333,1,no
3,1,0,0,0,0,1,1,3,0,3,3,0,no
14,0,4,2,0,2,1,1,14,0,14,14,0,no
4,2,0,0,0,0,1,1,4,0,4,4,0,no
6,0,1,1,0,1,1,1,6,0,6,6,0,no
4,4,0,0,0,0,1,1,4,0,4,4,0,no
45,0,6,3,0,10,3,1,46,1,36,15.666667,0,no
3,2,0,0,0,0,1,1,3,0,3,3,0,no
7,2,1,1,0,1,1,1,7,0,7,7,0,no
4,2,0,0,0,0,1,1,4,0,4,4,0,no
17,1,7,2,6,1,1,1,17,0,17,17,0,no
3,0,0,0,0,0,1,1,3,0,3,3,0,no
3,0,0,0,0,0,1,1,3,0,3,3,0,no
7,0,1,0,0,2,1,1,7,0,7,7,0,no
3,0,0,0,0,0,1,1,3,0,3,3,0,no
2,0,0,0,2,0,1,1,2,0,2,2,0,no
7,2,1,1,0,0,1,1,7,0,7,7,0,no
3,0,0,0,0,0,1,1,3,0,3,3,0,no
6,0,1,1,0,0,1,1,6,0,6,6,0,no
3,0,0,0,0,0,1,1,3,0,3,3,0,no
3,2,0,0,0,0,1,1,3,0,3,3,0,no
7,1,2,2,0,1,2,2,7,0,6,3.5,0,no
13,2,3,2,1,1,3,3,15,2,14,5.666667,0,no
0,0,0,0,1,0,1,1,0,0,0,0,0,no
0,0,0,0,1,0,1,1,0,0,0,0,0,no
12,0,3,1,2,0,1,1,12,0,12,12,0,no
16,2,2,2,0,3,1,1,16,0,16,16,0,no
2,1,0,0,0,0,1,1,2,0,2,2,0,no
2,1,0,0,0,0,1,1,2,0,2,2,0,no
30,2,6,3,5,4,3,3,30,0,21,10,1,no
18,2,3,3,0,2,2,2,18,0,9,9,1,no
2,2,0,0,0,0,1,1,2,0,2,2,0,no
12,1,2,1,0,2,1,1,12,0,12,12,0,no
18,0,4,3,1,1,1,1,18,0,18,18,0,no
3,1,0,0,0,0,1,1,3,0,3,3,0,no
3,3,0,0,0,0,1,1,3,0,3,3,0,no
7,1,0,0,1,3,2,2,7,0,4,3.5,1,no
3,0,0,0,0,0,1,1,3,0,3,3,0,no
47,1,6,3,4,10,2,2,48,1,47,24.5,0,no
4,0,0,0,0,0,1,1,4,0,4,4,0,no
4,1,0,0,1,0,1,1,4,0,4,4,0,no
76,7,13,5,4,11,2,2,76,0,68,38,1,no
4,1,0,0,1,0,1,1,4,0,4,4,0,no
2,2,0,0,0,0,1,1,2,0,2,2,0,no
2,0,0,0,0,0,1,1,2,0,2,2,0,no
8,0,1,1,0,0,1,1,8,0,8,8,0,no
8,0,1,1,0,0,1,1,8,0,8,8,1,no
4,4,0,0,0,1,1,1,4,0,4,4,0,no
8,3,1,1,0,1,1,1,8,0,8,8,0,no
14,3,3,2,0,1,1,1,14,0,14,14,0,no
6,4,0,0,0,0,1,1,6,0,6,6,0,no
3,0,0,0,0,0,1,1,3,0,3,3,0,no
3,0,0,0,0,0,1,1,3,0,3,3,0,no
3,0,0,0,0,0,1,1,3,0,3,3,0,no
3,0,0,0,0,0,1,1,3,0,3,3,0,no
0,1,0,0,1,0,1,1,0,0,0,0,0,no
0,1,0,0,1,0,1,1,0,0,0,0,0,no
0,2,0,0,1,0,1,1,0,0,0,0,0,no
0,2,0,0,1,0,1,1,0,0,0,0,0,no
0,1,0,0,1,0,1,1,0,0,0,0,0,no
0,3,0,0,1,0,1,1,0,0,0,0,0,no
0,1,0,0,1,0,1,1,0,0,0,0,0,no
0,1,0,0,1,0,1,1,0,0,0,0,0,no
0,2,0,0,1,0,1,1,0,0,0,0,0,no
0,0,0,0,1,0,1,1,0,0,0,0,0,no
0,1,0,0,1,0,1,1,0,0,0,0,0,no
8,6,0,0,0,0,1,1,8,0,8,8,0,no
3,0,0,0,0,0,1,1,3,0,3,3,0,no
3,0,0,0,0,0,1,1,3,0,3,3,0,no
3,0,0,0,0,0,1,1,3,0,3,3,0,no
3,0,0,0,0,0,1,1,3,0,3,3,0,no
3,0,0,0,0,0,1,1,3,0,3,3,0,no
3,0,0,0,0,0,1,1,3,0,3,3,0,no
7,2,0,0,0,0,3,2,8,1,5,3,0,no
22,3,2,2,1,4,4,3,28,6,15,8.5,0,no
3,2,0,0,0,0,1,1,3,0,3,3,0,no
3,1,0,0,0,0,1,1,3,0,3,3,0,no
13,2,1,1,1,3,1,1,13,0,13,13,0,no
15,1,4,3,0,2,1,1,15,0,15,15,0,no
3,1,0,0,0,0,1,1,3,0,3,3,0,no
3,2,0,0,0,0,1,1,3,0,3,3,0,no
3,2,0,0,0,0,2,2,4,1,3,2.5,0,no
13,1,1,1,0,4,1,1,13,0,13,13,0,no
25,3,4,2,1,8,3,3,27,2,25,9.666667,0,no
17,2,2,1,1,0,2,1,17,0,15,8.5,0,no
3,1,0,0,0,0,1,1,3,0,3,3,0,no
3,3,0,0,0,0,1,1,3,0,3,3,0,no
4,1,0,0,0,1,1,1,4,0,4,4,0,no
9,1,1,1,0,0,2,1,10,1,9,5.5,0,no
4,1,0,0,0,0,1,1,4,0,4,4,0,no
24,4,4,1,0,4,3,2,29,5,17,11.333333,0,no
3,1,0,0,0,0,2,2,4,1,3,2.5,0,no
3,2,0,0,0,0,1,1,3,0,3,3,0,no
3,0,0,0,0,0,2,2,4,1,4,2.5,0,no
8,0,1,1,0,0,2,2,8,0,5,4,0,no
9,0,2,2,0,0,1,1,9,0,9,9,0,no
4,0,0,0,0,0,2,1,4,0,3,2,0,no
3,0,0,0,0,0,1,1,3,0,3,3,0,no
0,0,0,0,1,0,1,1,0,0,0,0,0,no
3,1,0,0,0,0,1,1,3,0,3,3,0,no
11,1,2,1,0,2,1,1,11,0,11,11,0,no
3,0,0,0,0,0,1,1,3,0,3,3,0,no
4,2,0,0,0,0,1,1,4,0,4,4,0,no
21,0,3,1,0,5,2,2,23,2,23,12.5,0,no
4,2,0,0,0,0,1,1,4,0,4,4,0,no
5,0,0,0,0,0,1,1,5,0,5,5,0,no
3,0,0,0,0,0,1,1,3,0,3,3,0,no
3,0,0,0,0,0,1,1,3,0,3,3,0,no
6,2,0,0,0,3,2,2,7,1,6,4,0,no
7,2,0,0,0,3,2,2,8,1,7,4.5,0,no
3,0,0,0,0,0,1,1,3,0,3,3,0,no
4,2,0,0,0,0,1,1,4,0,4,4,0,no
6,1,1,1,0,1,2,2,7,1,6,4,0,no
14,2,2,1,1,2,2,2,15,1,14,8,0,no
3,2,0,0,0,0,1,1,3,0,3,3,0,no
5,2,1,1,0,0,1,1,5,0,5,5,0,no
3,1,0,0,0,0,1,1,3,0,3,3,0,no
16,0,2,1,0,3,2,2,16,0,8,8,0,no
4,2,0,0,0,0,1,1,4,0,4,4,0,no
3,0,0,0,0,0,2,2,4,1,3,2.5,0,no
3,0,0,0,0,0,1,1,3,0,3,3,0,no
3,1,0,0,0,0,1,1,3,0,3,3,0,no
3,0,0,0,0,0,1,1,3,0,3,3,0,no
3,0,0,0,0,0,1,1,3,0,3,3,0,no
3,0,0,0,0,0,1,1,3,0,3,3,0,no
3,0,0,0,0,0,2,1,4,1,3,2.5,0,no
3,0,0,0,0,0,2,1,4,1,3,2.5,0,no
3,0,0,0,0,0,1,1,3,0,3,3,0,no
0,0,0,0,1,0,1,1,0,0,0,0,0,no
0,0,0,0,1,0,1,1,0,0,0,0,0,no
0,0,0,0,1,0,1,1,0,0,0,0,0,no
0,0,0,0,1,0,1,1,0,0,0,0,0,no
0,2,0,0,1,0,1,1,0,0,0,0,0,no
0,2,0,0,1,0,1,1,0,0,0,0,0,no
0,2,0,0,1,0,1,1,0,0,0,0,0,no
4,2,0,0,0,0,1,1,4,0,4,4,0,no
7,1,1,1,1,1,1,1,7,0,7,7,0,no
3,0,0,0,0,0,1,1,3,0,3,3,0,no
3,0,0,0,0,0,1,1,3,0,3,3,0,no
3,0,0,0,0,0,1,1,3,0,3,3,0,no
6,4,0,0,0,0,1,1,6,0,6,6,0,no
3,0,0,0,0,0,1,1,3,0,3,3,0,no
3,0,0,0,0,0,1,1,3,0,3,3,0,no
3,0,0,0,0,0,1,1,3,0,3,3,0,no
3,0,0,0,0,0,1,1,3,0,3,3,0,no
3,1,0,0,0,0,1,1,3,0,3,3,0,no
3,2,0,0,0,0,1,1,3,0,3,3,0,no
3,2,0,0,0,0,2,2,10,7,10,8.5,0,no
10,1,2,1,0,2,1,1,10,0,10,10,0,no
9,3,2,1,0,1,1,1,9,0,9,9,0,no
3,2,0,0,0,0,1,1,3,0,3,3,0,no
10,2,2,2,0,3,1,1,10,0,10,10,0,no
16,2,3,1,0,2,1,1,16,0,16,16,0,no
2,2,0,0,2,0,1,1,2,0,2,2,0,no
2,2,0,0,2,0,1,1,2,0,2,2,0,no
3,1,0,0,0,0,1,1,3,0,3,3,0,no
9,2,0,0,1,0,2,2,21,12,21,16.5,1,no
3,0,0,0,0,0,1,1,3,0,3,3,1,no
3,0,0,0,0,0,1,1,3,0,3,3,0,no
3,0,0,0,0,0,1,1,3,0,3,3,1,no
11,0,0,0,0,0,3,2,12,1,10,4.333333,1,no
14,0,0,0,0,4,2,2,14,0,13,7,0,no
22,1,4,2,2,4,2,2,23,1,22,12,1,no
5,0,0,0,0,0,2,2,6,1,5,3.5,0,no
14,0,0,0,0,1,1,1,14,0,14,14,1,no
7,0,0,0,0,0,1,1,7,0,7,7,0,no
3,2,0,0,0,0,1,1,3,0,3,3,0,no
4,2,0,0,0,0,1,1,4,0,4,4,0,no
19,2,1,1,0,2,1,1,19,0,19,19,0,no
3,2,0,0,0,0,1,1,3,0,3,3,0,no
4,2,0,0,0,0,1,1,4,0,4,4,0,no
3,0,0,0,0,0,1,1,3,0,3,3,0,no
3,0,0,0,0,0,1,1,3,0,3,3,0,no
3,1,0,0,0,0,1,1,3,0,3,3,0,no
12,2,2,1,0,1,1,1,12,0,12,12,0,no
3,1,0,0,0,0,1,1,3,0,3,3,0,no
17,2,1,1,0,1,1,1,17,0,17,17,0,no
3,2,0,0,0,0,1,1,3,0,3,3,0,no
3,2,0,0,0,0,1,1,3,0,3,3,0,no
4,2,0,0,0,0,1,1,4,0,4,4,0,no
41,2,5,1,0,6,4,3,43,2,38,11.25,1,no
13,5,1,1,0,2,1,1,13,0,13,13,0,no
6,1,1,1,0,0,1,1,6,0,6,6,0,no
4,2,0,0,0,0,1,1,4,0,4,4,0,no
20,2,3,1,0,2,2,2,21,1,20,11,1,no
4,2,0,0,0,0,1,1,4,0,4,4,0,no
3,1,0,0,0,0,1,1,3,0,3,3,0,no
24,2,2,1,0,2,1,1,24,0,24,24,0,no
3,2,0,0,0,0,1,1,3,0,3,3,0,no
9,2,1,1,0,0,1,1,9,0,9,9,0,no
4,2,0,0,0,0,1,1,4,0,4,4,0,no
21,2,1,1,0,2,1,1,21,0,21,21,0,no
3,2,0,0,0,0,1,1,3,0,3,3,0,no
3,2,0,0,0,0,1,1,3,0,3,3,0,no
4,1,0,0,0,0,1,1,4,0,4,4,0,no
4,2,0,0,0,0,1,1,4,0,4,4,0,no
5,3,0,0,0,0,1,1,5,0,5,5,0,no
20,1,1,1,1,2,2,2,20,0,12,10,0,no
3,0,0,0,0,0,1,1,3,0,3,3,0,no
3,0,0,0,0,0,1,1,3,0,3,3,0,no
3,1,0,0,0,0,1,1,3,0,3,3,0,no
4,5,0,0,0,1,2,2,4,0,3,2,0,no
3,5,0,0,0,0,1,1,3,0,3,3,0,no
3,4,0,0,0,0,1,1,3,0,3,3,0,no
4,3,0,0,0,1,2,2,4,0,3,2,0,no
3,3,0,0,0,0,1,1,3,0,3,3,0,no
3,2,0,0,0,0,1,1,3,0,3,3,0,no
12,5,2,1,1,1,3,3,13,1,8,4.666667,1,no
66,5,13,3,11,1,4,2,68,2,63,17.5,1,no
15,3,3,1,1,3,5,4,61,46,58,21.4,1,no
37,1,6,4,4,3,3,3,38,1,22,13,1,no
13,2,2,1,0,1,2,2,14,1,13,7.5,1,no
16,3,2,1,0,1,2,2,17,1,16,9,1,no
6,0,1,1,0,1,3,3,7,1,5,2.666667,1,no
8,0,1,1,0,1,3,3,21,1,14,7.333333,1,no
9,0,3,1,1,3,3,3,21,1,14,7.333333,1,no
20,0,4,4,1,3,3,3,21,1,14,7.333333,1,no
4,2,1,1,2,0,3,3,6,2,4,2.666667,1,no
4,2,1,1,1,0,3,3,6,2,4,2.666667,1,no
8,2,2,1,2,0,2,2,9,1,8,5,1,no
38,2,8,2,8,0,4,2,40,2,35,10.5,1,no
19,5,3,1,3,0,3,2,21,2,19,7.666667,1,no
5,2,1,1,2,0,2,2,6,1,5,3.5,1,no
5,2,1,1,1,0,2,1,6,1,5,3.5,0,no
49,0,7,3,0,8,3,2,57,8,56,21.666667,1,no
3,0,0,0,0,0,2,1,6,3,6,4.5,1,no
3,2,0,0,0,0,1,1,3,0,3,3,1,no
3,2,0,0,0,0,1,1,3,0,3,3,1,no
12,1,1,1,0,2,1,1,12,0,12,12,0,no
3,0,0,0,0,0,1,1,3,0,3,3,0,no
10,5,1,1,0,0,1,1,10,0,10,10,0,no
3,3,0,0,0,0,1,1,3,0,3,3,0,no
3,1,0,0,0,0,1,1,3,0,3,3,0,no
3,4,0,0,0,0,1,1,3,0,3,3,0,no
0,5,0,0,1,0,1,1,0,0,0,0,0,no
0,5,0,0,0,0,1,1,0,0,0,0,0,no
5,1,2,2,2,1,1,1,5,0,5,5,0,no
0,0,0,0,0,0,1,1,0,0,0,0,0,no
3,1,0,0,0,0,6,2,8,5,5,2.166667,1,no
6,4,1,1,0,2,1,1,6,0,6,6,0,no
3,1,1,1,1,1,1,1,3,0,3,3,0,no
0,4,0,0,1,0,1,1,0,0,0,0,0,no
0,3,0,0,1,0,1,1,0,0,0,0,0,no
0,6,0,0,0,0,1,1,0,0,0,0,0,no
3,5,0,0,0,0,1,1,3,0,3,3,0,no
3,5,0,0,0,0,1,1,3,0,3,3,0,no
22,0,2,2,0,3,3,2,23,1,19,8,1,no
3,4,0,0,0,0,1,1,3,0,3,3,0,no
20,1,4,2,0,3,2,1,21,1,20,11,0,no
0,6,0,0,0,0,1,1,0,0,0,0,0,no
35,5,2,1,0,2,2,1,35,0,25,17.5,0,no
35,5,2,1,0,2,2,1,35,0,25,17.5,0,no
16,3,3,3,0,4,1,1,16,0,16,16,0,no
17,2,1,1,0,0,1,1,17,0,17,17,0,no
17,2,1,1,0,0,1,1,17,0,17,17,0,no
4,2,0,0,0,0,1,1,4,0,4,4,0,no
4,2,0,0,0,0,1,1,4,0,4,4,0,no
3,2,0,0,0,0,1,1,3,0,3,3,0,no
3,2,0,0,0,0,1,1,3,0,3,3,0,no
4,2,0,0,0,0,1,1,4,0,4,4,0,no
4,2,0,0,0,0,1,1,4,0,4,4,0,no
3,2,0,0,0,0,1,1,3,0,3,3,1,no
3,2,0,0,0,0,1,1,3,0,3,3,1,no
3,3,0,0,0,0,1,1,3,0,3,3,0,no
34,0,2,1,2,1,4,3,38,4,36,10.5,0,no
3,2,0,0,0,0,1,1,3,0,3,3,0,no
21,2,1,1,2,1,3,3,25,4,24,9.666667,0,no
4,2,0,0,1,0,1,1,4,0,4,4,0,no
5,2,0,0,1,0,1,1,5,0,5,5,0,no
3,4,0,0,1,0,1,1,3,0,3,3,0,no
3,0,0,0,0,0,1,1,3,0,3,3,0,no
5,5,0,0,0,0,1,1,5,0,5,5,0,no
33,0,5,2,0,2,4,2,34,1,20,8.75,0,no
3,2,0,0,0,0,1,1,3,0,3,3,0,no
4,2,0,0,0,0,1,1,4,0,4,4,0,no
24,0,6,3,3,7,5,2,25,1,18,5.2,1,no
3,2,0,0,0,0,1,1,3,0,3,3,1,no
2,2,0,0,2,0,1,1,2,0,2,2,1,no
3,3,0,0,0,0,2,1,6,0,3,3,1,no
36,0,6,3,2,3,5,2,43,7,22,10,1,no
18,0,5,3,0,2,5,2,25,7,19,6.4,1,no
4,2,0,0,1,0,1,1,4,0,4,4,1,no
4,2,0,0,1,0,2,1,4,0,3,2,1,no
5,5,0,0,0,0,1,1,5,0,5,5,0,no
97,0,10,3,4,11,9,3,107,10,55,13,1,no
3,2,0,0,0,0,1,1,3,0,3,3,0,no
3,2,0,0,0,0,1,1,3,0,3,3,0,no
32,2,1,1,4,1,1,1,32,0,32,32,0,no
7,2,1,1,0,0,8,3,41,34,25,9.375,1,no
17,2,0,0,2,0,6,3,25,8,16,5.5,1,no
5,2,0,0,0,0,5,2,8,3,4,2.2,0,no
3,0,0,0,0,0,1,1,3,0,3,3,0,no
4,2,0,0,1,0,1,1,4,0,4,4,0,no
3,2,0,0,0,0,1,1,3,0,3,3,0,no
4,4,0,0,0,0,1,1,4,0,4,4,0,no
25,0,3,1,1,1,6,3,28,3,24,5.166667,1,no
3,2,0,0,0,0,1,1,3,0,3,3,0,no
7,2,1,1,1,0,1,1,7,0,7,7,0,no
8,1,1,1,0,1,1,1,8,0,8,8,0,no
4,3,0,0,0,0,1,1,4,0,4,4,0,no
7,1,1,1,1,0,2,2,8,1,7,4.5,0,no
2,0,0,0,0,0,1,1,2,0,2,2,0,no
3,5,0,0,0,0,1,1,3,0,3,3,0,no
3,5,0,0,0,0,1,1,3,0,3,3,0,no
3,5,0,0,0,0,1,1,3,0,3,3,0,no
3,0,0,0,0,0,1,1,3,0,3,3,0,no
9,1,2,1,1,1,3,2,9,0,4,3,0,no
13,4,2,1,0,2,2,2,13,0,8,6.5,0,no
8,3,1,1,0,1,2,2,9,1,8,5,0,no
3,6,0,0,0,0,1,1,3,0,3,3,0,no
3,6,0,0,0,0,1,1,3,0,3,3,0,no
3,2,0,0,0,0,1,1,3,0,3,3,0,no
13,3,1,1,0,1,2,1,13,0,12,6.5,0,no
3,0,0,0,0,0,1,1,3,0,3,3,0,no
3,0,0,0,0,0,1,1,3,0,3,3,0,no
3,0,0,0,0,0,1,1,3,0,3,3,0,no
3,0,0,0,0,0,1,1,3,0,3,3,0,no
3,0,0,0,0,0,1,1,3,0,3,3,0,no
12,2,2,1,0,1,2,2,12,0,8,6,1,no
8,0,1,1,0,1,1,1,8,0,8,8,1,no
3,1,0,0,0,0,1,1,3,0,3,3,0,no
3,1,0,0,0,0,1,1,3,0,3,3,0,no
4,0,0,0,0,1,2,1,4,0,3,2,0,no
52,1,13,5,0,7,4,2,53,1,40,13.5,0,no
4,6,0,0,0,0,1,1,4,0,4,4,0,no
3,5,0,0,0,0,1,1,3,0,3,3,0,no
3,5,0,0,0,0,1,1,3,0,3,3,0,no
3,0,0,0,0,0,1,1,3,0,3,3,0,no
16,4,1,1,0,0,1,1,16,0,16,16,0,no
17,3,1,1,0,3,3,1,17,0,13,5.666667,0,no
3,6,0,0,0,0,1,1,3,0,3,3,0,no
8,0,1,1,0,0,1,1,8,0,8,8,0,no
3,6,0,0,0,0,1,1,3,0,3,3,0,no
3,2,0,0,0,0,1,1,3,0,3,3,0,no
8,2,1,1,0,3,2,1,8,0,7,4,0,no
3,2,0,0,0,0,1,1,3,0,3,3,0,no
7,2,1,1,0,0,1,1,7,0,7,7,0,no
0,3,0,0,1,0,1,1,0,0,0,0,0,no
0,1,0,0,1,0,1,1,0,0,0,0,0,no
0,1,0,0,1,0,1,1,0,0,0,0,0,no
0,4,0,0,1,0,1,1,0,0,0,0,0,no
0,5,0,0,1,0,1,1,0,0,0,0,0,no
0,5,0,0,1,0,1,1,0,0,0,0,0,no
0,0,0,0,1,0,1,1,0,0,0,0,1,no
0,4,0,0,1,0,1,1,0,0,0,0,0,no
6,2,0,0,0,0,1,1,6,0,6,6,0,no
3,1,0,0,0,0,1,1,3,0,3,3,0,no
3,4,0,0,0,0,1,1,3,0,3,3,0,no
45,3,3,2,5,4,3,3,45,0,35,15,1,yes
0,3,0,0,0,0,1,1,0,0,0,0,0,no
0,4,0,0,0,0,1,1,0,0,0,0,0,no
5,3,1,1,1,1,1,1,5,0,5,5,0,no
3,3,0,0,0,0,1,1,3,0,3,3,0,no
2,0,0,0,0,0,1,1,2,0,2,2,1,no
12,2,0,0,4,1,2,2,12,0,8,6,1,yes
23,2,2,2,1,0,2,2,23,0,21,11.5,0,no
4,2,0,0,2,0,1,1,4,0,4,4,1,no
3,2,0,0,2,0,1,1,3,0,3,3,1,no
14,0,1,1,1,0,2,2,14,0,12,7,0,no
3,2,0,0,1,0,1,1,3,0,3,3,0,no
5,2,1,1,0,0,2,2,5,0,3,2.5,0,no
4,4,0,0,0,0,1,1,4,0,4,4,0,no
3,0,0,0,0,0,1,1,3,0,3,3,0,no
3,3,0,0,0,0,1,1,3,0,3,3,0,no
7,0,1,1,0,0,1,1,7,0,7,7,0,no
3,2,0,0,0,0,1,1,3,0,3,3,0,no
5,3,0,0,0,0,1,1,5,0,5,5,0,no
22,1,5,2,0,1,1,1,22,0,22,22,0,no
3,0,0,0,0,0,1,1,3,0,3,3,0,no
6,0,1,1,0,0,1,1,6,0,6,6,0,no
3,0,0,0,0,0,1,1,3,0,3,3,0,no
3,0,0,0,0,0,1,1,3,0,3,3,0,no
30,1,5,2,2,6,1,1,30,0,30,30,0,no
3,0,0,0,0,0,1,1,3,0,3,3,0,no
3,1,0,0,0,0,1,1,3,0,3,3,0,no
3,2,0,0,0,0,1,1,3,0,3,3,0,no
3,1,0,0,0,0,1,1,3,0,3,3,0,no
3,1,0,0,0,0,1,1,3,0,3,3,0,no
3,1,2,0,1,0,1,1,3,0,3,3,0,no
6,1,1,1,1,0,1,1,6,0,6,6,0,no
3,0,0,0,0,0,1,1,3,0,3,3,0,no
22,1,4,2,2,4,1,1,22,0,22,22,0,no
4,1,0,0,0,0,1,1,4,0,4,4,0,no
3,0,0,0,0,0,1,1,3,0,3,3,0,no
3,0,0,0,0,0,1,1,3,0,3,3,0,no
3,1,0,0,0,0,1,1,3,0,3,3,0,no
3,2,0,0,0,0,1,1,3,0,3,3,0,no
0,2,0,0,1,0,1,1,0,0,0,0,0,no
0,3,0,0,1,0,1,1,0,0,0,0,0,no
0,1,0,0,1,0,1,1,0,0,0,0,0,no
0,3,0,0,1,0,1,1,0,0,0,0,0,no
0,0,0,0,1,0,1,1,0,0,0,0,0,no
0,1,0,0,1,0,1,1,0,0,0,0,0,no
0,0,0,0,1,0,1,1,0,0,0,0,0,no
0,0,0,0,1,0,1,1,0,0,0,0,0,no
0,0,0,0,1,0,1,1,0,0,0,0,0,no
40,4,1,1,1,3,1,1,40,0,40,40,0,no
44,3,4,1,6,1,1,1,44,0,44,44,0,yes
11,4,2,1,0,0,1,1,11,0,11,11,0,no
8,0,1,1,1,0,1,1,8,0,8,8,0,no
4,2,0,0,0,0,1,1,4,0,4,4,0,no
4,2,0,0,1,0,1,1,4,0,4,4,0,no
4,2,0,0,0,0,1,1,4,0,4,4,0,no
34,2,4,1,5,1,1,1,34,0,34,34,0,no
9,2,1,1,2,0,1,1,9,0,9,9,0,no
3,2,0,0,0,0,1,1,3,0,3,3,0,no
3,0,0,0,0,0,1,1,3,0,3,3,0,no
3,0,0,0,0,0,1,1,3,0,3,3,0,no
3,0,0,0,0,0,1,1,3,0,3,3,0,no
5,3,0,0,0,0,1,1,5,0,5,5,0,no
18,1,1,1,1,0,1,1,18,0,18,18,0,no
18,1,1,1,0,0,1,1,18,0,18,18,0,no
5,1,0,0,0,0,1,1,5,0,5,5,0,no
49,0,5,2,0,2,2,1,50,1,49,25.5,0,no
19,2,1,1,0,0,1,1,19,0,19,19,0,no
4,2,0,0,1,0,1,1,4,0,4,4,0,no
8,2,1,1,0,0,1,1,8,0,8,8,0,no
3,2,0,0,0,0,1,1,3,0,3,3,0,no
40,2,5,2,0,2,2,1,41,1,40,21,0,no
3,2,0,0,0,0,1,1,3,0,3,3,0,no
7,2,1,1,0,0,1,1,7,0,7,7,0,no
8,2,1,1,0,0,1,1,8,0,8,8,0,no
8,2,1,1,0,0,1,1,8,0,8,8,0,no
3,2,0,0,0,0,1,1,4,0,4,4,0,no
4,2,0,0,0,0,1,1,4,0,4,4,0,no
0,1,0,0,1,0,1,1,0,0,0,0,0,no
0,4,0,0,1,0,1,1,0,0,0,0,0,no
0,3,0,0,1,0,1,1,0,0,0,0,0,no
0,0,0,0,1,0,1,1,0,0,0,0,1,no
0,3,0,0,1,0,1,1,0,0,0,0,0,no
0,1,0,0,1,0,1,1,0,0,0,0,0,no
3,2,0,0,0,0,1,1,3,0,3,3,0,no
3,3,0,0,0,0,1,1,3,0,3,3,0,no
7,4,1,1,0,0,1,1,7,0,7,7,0,no
2,0,0,0,0,0,1,1,2,0,2,2,1,no
8,3,0,0,0,0,1,1,8,0,8,8,0,no
13,2,1,1,0,1,1,1,13,0,13,13,0,no
43,3,7,3,4,9,2,2,45,2,45,23.5,0,no
4,1,0,0,1,1,1,1,4,0,4,4,0,no
18,3,3,3,0,0,1,1,18,0,18,18,0,no
3,1,0,0,0,0,1,1,3,0,3,3,0,no
42,3,4,2,1,3,1,1,42,0,42,42,0,no
9,0,2,1,1,0,1,1,9,0,9,9,0,no
5,1,0,0,0,1,2,2,7,2,7,4.5,0,no
8,4,1,1,0,1,1,1,8,0,8,8,0,yes
31,5,6,3,3,3,2,2,33,2,33,17.5,0,no
13,4,3,3,0,0,1,1,13,0,13,13,0,no
36,4,4,2,1,2,1,1,36,0,36,36,0,no
10,4,1,1,0,0,1,1,10,0,10,10,0,no
9,3,1,1,1,1,1,1,9,0,9,9,0,no
5,4,1,1,0,0,1,1,5,0,5,5,0,no
25,1,8,4,0,0,1,1,25,0,25,25,0,yes
39,3,1,1,0,3,3,2,43,4,42,15.666667,1,no
3,1,0,0,0,0,1,1,3,0,3,3,0,no
42,3,5,2,3,5,2,2,42,0,34,21,0,yes
11,4,2,1,0,0,1,1,11,0,11,11,0,no
8,0,1,1,0,0,2,1,10,2,10,6,1,no
4,2,0,0,0,0,1,1,4,0,4,4,0,no
4,2,0,0,0,0,1,1,4,0,4,4,0,no
3,0,0,0,0,0,1,1,3,0,3,3,0,no
3,0,0,0,0,0,1,1,3,0,3,3,0,no
3,0,0,0,0,0,1,1,3,0,3,3,0,no
37,5,5,2,3,5,2,2,37,0,29,18.5,0,no
8,3,1,1,0,1,1,1,8,0,8,8,0,no
7,4,0,0,0,0,1,1,7,0,7,7,0,no
18,0,1,1,1,0,2,2,18,0,14,9,0,no
22,0,4,2,0,1,2,2,23,1,22,12,0,no
6,0,1,1,2,0,1,1,6,0,6,6,0,no
41,0,6,3,2,4,2,2,41,0,36,20.5,0,no
4,2,0,0,1,0,1,1,4,0,4,4,0,no
8,2,1,1,0,0,1,1,8,0,8,8,0,no
36,5,6,3,2,4,2,2,36,0,31,18,0,no
8,3,1,1,0,1,1,1,8,0,8,8,0,no
14,4,3,2,0,1,2,2,15,1,14,8,0,no
7,4,1,1,1,0,1,1,7,0,7,7,0,no
0,4,0,0,0,0,1,1,0,0,0,0,0,no
7,3,1,1,1,0,1,1,7,0,7,7,0,no
0,3,0,0,0,0,1,1,0,0,0,0,0,no
7,3,1,1,1,0,1,1,7,0,7,7,0,no
0,3,0,0,0,0,1,1,0,0,0,0,0,no
7,3,1,1,1,0,1,1,7,0,7,7,0,no
0,3,0,0,0,0,1,1,0,0,0,0,0,no
7,4,1,1,1,0,1,1,7,0,7,7,0,no
0,4,0,0,0,0,1,1,0,0,0,0,0,no
4,1,0,0,0,1,1,1,4,0,4,4,0,no
3,1,0,0,0,0,1,1,3,0,3,3,0,no
7,5,1,1,1,0,1,1,7,0,7,7,0,no
0,5,0,0,0,0,1,1,0,0,0,0,0,no
7,4,1,1,1,0,1,1,7,0,7,7,0,no
0,4,0,0,0,0,1,1,0,0,0,0,0,no
7,5,1,1,1,0,1,1,7,0,7,7,0,no
0,5,0,0,0,0,1,1,0,0,0,0,0,no
7,4,1,1,1,0,1,1,7,0,7,7,0,no
0,4,0,0,0,0,1,1,0,0,0,0,0,no
7,4,1,1,1,0,1,1,7,0,7,7,0,no
0,4,0,0,0,0,1,1,0,0,0,0,0,no
7,3,1,1,1,0,1,1,7,0,7,7,0,no
0,3,0,0,0,0,1,1,0,0,0,0,0,no
22,5,2,1,1,1,1,1,22,0,22,22,0,no
21,7,2,1,0,0,1,1,21,0,21,21,0,no
5,3,0,0,1,1,1,1,5,0,5,5,0,no
16,4,2,1,0,0,1,1,16,0,16,16,0,no
7,4,1,1,0,0,1,1,7,0,7,7,0,no
8,4,0,0,1,0,1,1,8,0,8,8,0,no
18,1,2,2,0,3,1,1,18,0,18,18,1,no
75,1,4,1,2,25,3,1,75,0,67,25,1,no
3,0,0,0,0,0,1,1,3,0,3,3,0,no
5,0,1,1,0,0,1,1,5,0,5,5,0,no
7,5,1,1,1,0,1,1,7,0,7,7,0,no
7,1,1,1,0,0,1,1,7,0,7,7,0,no
9,5,2,1,1,0,1,1,9,0,9,9,0,no
107,1,16,7,2,20,3,2,108,1,103,36.333333,0,no
62,3,11,5,2,14,1,1,62,0,62,62,0,no
4,1,0,0,0,1,1,1,4,0,4,4,0,no
13,2,2,2,1,2,1,1,13,0,13,13,0,no
42,1,9,6,1,7,2,1,43,1,42,22,0,no
3,0,0,0,1,0,2,1,4,1,3,2.5,0,no
5,1,1,1,0,0,1,1,5,0,5,5,0,no
17,7,2,2,1,1,1,1,17,0,17,17,0,no
11,4,1,1,0,2,2,1,11,0,9,5.5,0,no
6,0,1,1,0,1,1,1,6,0,6,6,0,no
3,0,0,0,0,0,1,1,3,0,3,3,0,no
3,0,0,0,0,0,1,1,3,0,3,3,0,no
3,0,0,0,0,0,1,1,3,0,3,3,0,no
137,1,15,3,9,37,6,3,140,3,104,23.833333,0,no
11,2,1,1,0,5,1,1,11,0,11,11,0,no
64,0,10,3,5,10,3,2,64,0,60,21.333333,0,no
3,1,0,0,0,0,1,1,3,0,3,3,0,no
33,6,3,2,3,7,3,3,34,1,32,11.666667,1,no
10,0,2,2,2,0,2,1,11,1,10,6,0,no
4,0,0,0,1,0,1,1,4,0,4,4,0,no
5,1,1,1,0,0,1,1,5,0,5,5,0,no
5,1,1,1,0,0,1,1,5,0,5,5,0,no
5,1,1,1,0,0,1,1,5,0,5,5,0,no
4,2,0,0,0,0,2,2,5,1,4,3,0,no
15,3,1,1,0,1,1,1,15,0,15,15,0,no
3,0,0,0,0,0,1,1,3,0,3,3,0,no
19,1,4,1,2,3,2,2,20,1,19,10.5,0,no
11,2,1,1,0,2,2,2,12,1,11,6.5,0,no
14,2,1,1,1,2,2,2,15,1,14,8,0,no
127,1,23,5,7,41,5,3,135,8,93,28.6,1,no
4,0,0,0,1,0,1,1,4,0,4,4,0,no
7,4,0,0,0,0,1,1,7,0,7,7,0,no
6,4,1,1,0,0,1,1,6,0,6,6,0,no
29,0,5,3,2,5,1,1,29,0,29,29,0,no
6,3,0,0,0,0,1,1,6,0,6,6,0,no
22,0,2,2,2,5,1,1,22,0,22,22,0,no
6,3,0,0,0,0,1,1,6,0,6,6,0,no
22,0,2,2,1,5,1,1,22,0,22,22,0,no
17,1,0,0,1,0,18,3,111,94,85,11.388889,1,no
14,4,2,2,0,1,3,1,5,9,5,4.666667,0,no
5,2,0,0,0,2,3,1,9,4,8,4.333333,0,no
8,4,0,0,0,2,3,2,11,3,10,4.666667,0,no
25,1,4,2,0,5,3,3,26,1,21,9,1,no
66,1,15,4,3,10,4,2,67,1,51,17,1,no
15,1,4,3,2,2,1,1,15,0,15,15,0,no
19,2,1,1,0,4,2,1,19,0,13,9.5,1,no
37,3,8,4,1,4,1,1,37,0,37,37,0,no
3,1,0,0,0,0,1,1,3,0,3,3,1,no
7,1,1,1,0,2,1,1,7,0,7,7,1,no
3,1,0,0,0,0,2,2,4,1,3,2.5,1,no
10,1,1,1,0,2,3,3,12,2,10,4.666667,0,yes
20,0,0,0,0,0,1,1,20,0,20,20,0,no
3,0,0,0,0,0,1,1,3,0,3,3,0,no
15,2,1,1,0,3,4,2,19,4,9,5.75,1,no
3,0,0,0,0,0,1,1,3,0,3,3,0,no
7,1,1,1,0,0,2,2,8,1,8,4.5,1,no
3,0,0,0,0,0,1,1,3,0,3,3,0,no
3,0,0,0,0,0,0,0,0,0,0,0,0,no
18,1,1,1,0,6,3,2,3,2,2,1.666667,1,no
14,2,1,1,1,1,3,2,25,11,25,12,1,no
5,2,0,0,0,1,3,2,1,7,4,2.666667,1,no
45,0,8,5,0,8,6,3,97,52,81,24.833333,1,no
11,4,1,1,0,1,3,1,15,4,10,6.333333,0,no
30,1,6,3,2,3,1,1,30,0,30,30,1,no
16,1,2,2,0,0,3,1,18,2,16,6.666667,0,no
11,0,2,1,0,0,8,4,25,62,52,10.875,1,no
3,0,0,0,0,0,5,3,6,15,14,4.2,1,no
25,1,4,3,1,0,9,2,33,8,23,4.555556,1,yes
27,0,3,1,2,0,10,3,37,10,19,4.7,1,yes
33,0,7,3,2,0,3,2,35,2,33,12.333333,0,yes
14,1,1,1,1,1,1,1,14,0,14,14,0,yes
18,0,4,2,0,0,2,1,19,1,18,10,0,no
6,2,1,1,0,0,1,1,6,0,6,6,1,no
3,1,0,0,0,0,1,1,3,0,3,3,1,no
3,0,0,0,0,0,1,1,3,0,3,3,1,no
3,2,0,0,0,0,1,1,3,0,3,3,1,no
3,0,0,0,0,0,1,1,3,0,3,3,1,no
3,0,0,0,0,0,1,1,3,0,3,3,1,no
40,3,8,5,0,8,2,2,40,0,29,20,1,no
3,0,0,0,0,0,1,1,3,0,3,3,0,no
3,1,0,0,0,0,1,1,3,0,3,3,0,no
2,1,0,0,0,0,1,1,2,0,2,2,0,no
4,0,0,0,0,0,1,1,4,0,4,4,0,no
3,0,0,0,1,0,1,1,3,0,3,3,0,no
5,1,1,1,0,0,1,1,5,0,5,5,1,no
8,1,1,1,0,0,1,1,8,0,8,8,1,no
22,3,3,1,2,0,1,1,22,0,22,22,1,no
17,5,3,1,2,0,1,1,17,0,17,17,1,no
3,1,0,0,0,0,1,1,3,0,3,3,1,no
4,0,0,0,0,0,1,1,4,0,4,4,1,no
6,2,1,1,0,0,2,2,6,0,4,3,1,no
3,0,0,0,0,0,1,1,3,0,3,3,1,no
3,0,0,0,0,0,1,1,3,0,3,3,1,no
5,1,0,0,0,0,1,1,5,0,5,5,1,no
3,0,0,0,0,0,0,0,0,0,0,0,0,no
5,0,1,1,0,0,0,0,0,0,0,0,0,no
6,5,1,1,0,0,0,0,0,0,0,0,0,no
3,0,0,0,0,0,1,1,3,0,3,3,1,no
6,5,1,1,0,0,1,1,6,0,6,6,1,no
5,3,0,0,0,0,1,1,5,0,5,5,1,no
3,2,0,0,0,0,1,1,0,2,2,2,1,no
3,0,0,0,0,0,0,0,0,0,0,0,0,no
3,0,0,0,0,0,0,0,0,0,0,0,0,no
4,1,0,0,0,0,1,1,1,0,1,1,1,no
3,0,0,0,0,0,0,0,0,0,0,0,0,no
5,5,1,1,0,0,2,1,5,0,3,2.5,0,no
5,1,0,0,0,0,2,2,7,2,7,4.5,0,no
6,0,0,0,1,0,1,1,6,0,6,6,1,no
51,0,10,4,1,1,10,3,52,28,25,8,1,no
7,0,1,1,0,0,1,1,7,0,7,7,0,no
5,0,0,0,0,0,1,1,5,0,5,5,1,no
3,1,0,0,0,0,1,1,3,0,3,3,0,no
3,0,0,0,0,0,1,1,3,0,3,3,0,no
3,0,0,0,0,0,2,2,4,1,3,2.5,0,no
3,0,0,0,0,0,1,1,3,0,3,3,0,no
0,0,0,0,1,0,1,1,0,0,0,0,0,no
8,1,1,1,1,3,1,1,8,0,8,8,0,no
33,3,3,1,0,7,2,2,34,1,34,17.5,1,yes
9,1,1,1,0,2,1,1,9,0,9,9,0,no
6,0,1,1,0,0,2,2,7,1,6,4,1,no
12,1,2,2,0,3,1,1,12,0,12,12,0,no
5,0,1,1,0,0,1,1,5,0,5,5,0,no
21,1,3,2,0,4,1,1,21,0,21,21,0,no
4,0,0,0,0,1,2,2,5,1,5,3,1,no
14,0,0,0,0,0,4,4,14,0,9,3.5,0,no
36,1,5,4,0,9,1,1,36,0,36,36,0,no
17,1,2,1,0,3,1,1,17,0,17,17,0,no
16,1,2,1,0,3,1,1,16,0,16,16,0,no
4,2,0,0,0,0,1,1,4,0,4,4,0,no
13,2,0,0,0,0,1,1,13,0,13,13,0,no
3,2,0,0,0,0,2,2,4,1,4,2.5,1,no
14,2,1,1,0,1,1,1,14,0,14,14,0,no
9,1,0,0,1,0,2,2,10,1,9,5.5,0,no
3,1,0,0,0,0,1,1,3,0,3,3,0,no
3,3,0,0,0,0,1,1,3,0,3,3,0,no
7,3,1,1,0,0,1,1,7,0,7,7,0,no
5,0,0,0,0,0,1,1,5,0,5,5,0,no
3,0,0,0,0,0,1,1,3,0,3,3,0,no
3,0,0,0,0,0,1,1,3,0,3,3,0,no
3,0,0,0,0,0,1,1,3,0,3,3,0,no
36,1,5,3,2,6,1,1,36,0,36,36,0,no
5,0,0,0,0,0,1,1,5,0,5,5,0,no
3,0,0,0,0,0,1,1,3,0,3,3,0,no
3,0,0,0,0,0,1,1,3,0,3,3,0,no
3,0,0,0,0,0,1,1,3,0,3,3,0,no
7,1,1,0,2,4,1,1,7,0,7,7,0,no
0,0,0,0,1,0,1,1,0,0,0,0,0,no
0,1,0,0,1,0,1,1,0,0,0,0,0,no
4,0,0,0,0,0,1,1,4,0,4,4,0,no
15,1,2,1,0,2,1,1,15,0,15,15,0,no
3,0,0,0,0,0,1,1,3,0,3,3,0,no
4,1,0,0,0,0,1,1,4,0,4,4,0,no
4,0,0,0,0,0,1,1,4,0,4,4,0,no
3,0,0,0,0,0,1,1,3,0,3,3,0,no
3,0,0,0,0,0,1,1,3,0,3,3,0,no
3,0,0,0,0,0,1,1,3,0,3,3,0,no
25,1,4,1,0,3,1,1,25,0,25,25,0,no
4,0,0,0,0,0,1,1,4,0,4,4,0,no
3,0,0,0,0,0,1,1,3,0,3,3,0,no
3,0,0,0,0,0,1,1,3,0,3,3,0,no
3,0,0,0,0,0,1,1,3,0,3,3,0,no
18,1,3,2,0,4,1,1,18,0,18,18,0,no
5,0,0,0,0,0,1,1,5,0,5,5,0,no
3,0,0,0,0,0,1,1,3,0,3,3,0,no
3,0,0,0,0,0,1,1,3,0,3,3,0,no
3,0,0,0,0,0,1,1,3,0,3,3,0,no
7,1,1,0,2,4,1,1,7,0,7,7,0,no
3,1,0,0,0,0,1,1,3,0,3,3,0,no
0,0,0,0,0,0,1,1,0,0,0,0,0,no
0,0,0,0,0,0,1,1,0,0,0,0,0,no
0,0,0,0,0,0,1,1,0,0,0,0,0,no
5,0,0,0,0,1,1,1,5,0,5,5,0,no
0,1,0,0,0,0,1,1,0,0,0,0,0,no
11,1,1,1,0,2,1,1,11,0,11,11,0,no
4,0,0,0,0,0,1,1,4,0,4,4,0,no
3,0,0,0,0,0,1,1,3,0,3,3,0,no
3,0,0,0,0,0,1,1,3,0,3,3,0,no
3,0,0,0,0,0,1,1,3,0,3,3,0,no
28,1,4,2,0,6,1,1,28,0,28,28,0,no
4,0,0,0,0,0,1,1,4,0,4,4,0,no
3,0,0,0,0,0,1,1,3,0,3,3,0,no
3,0,0,0,0,0,1,1,3,0,3,3,0,no
3,0,0,0,0,0,1,1,3,0,3,3,0,no
28,1,4,2,0,6,1,1,28,0,28,28,0,no
3,0,0,0,0,0,1,1,3,0,3,3,0,no
19,2,3,2,0,4,1,1,19,0,19,19,0,no
3,0,0,0,0,0,1,1,3,0,3,3,0,no
3,0,0,0,0,0,1,1,3,0,3,3,0,no
3,0,0,0,0,0,1,1,3,0,3,3,0,no
15,1,2,2,0,3,1,1,15,0,15,15,0,no
6,2,0,0,0,0,0,0,0,0,0,0,0,no
14,1,2,1,0,0,0,0,0,0,0,0,0,no
3,0,0,0,0,0,1,1,3,0,3,3,1,no
3,0,0,0,0,0,0,0,0,0,0,0,0,no
54,2,12,6,0,7,1,1,2,0,2,2,1,no
3,0,0,0,0,0,0,0,0,0,0,0,0,no
24,1,4,2,0,2,0,0,0,0,0,0,0,no
2,0,0,0,0,0,1,1,2,0,2,2,1,no
7,2,1,1,0,1,1,1,7,0,7,7,1,no
14,1,1,1,0,4,2,2,15,1,14,8,1,no
4,1,0,0,0,1,4,2,6,2,3,2,1,no
28,1,5,3,1,4,1,1,28,0,28,28,0,no
9,1,0,1,0,2,4,3,11,2,5,3.25,1,no
13,2,0,1,0,5,3,2,14,1,8,5,1,no
3,1,0,0,0,0,1,1,3,0,3,3,0,no
16,0,2,1,0,2,2,1,16,0,11,8,1,no
5,0,0,0,0,1,1,1,5,0,5,5,0,no
14,1,3,3,2,1,2,1,14,0,9,7,1,no
14,1,1,2,0,3,3,3,16,2,14,6,1,no
19,2,3,3,0,4,4,3,21,2,18,5.75,1,no
16,2,3,2,0,2,2,2,17,1,16,9,0,no
16,2,2,2,1,3,4,1,6,3,4,2.25,1,no
23,0,4,3,1,4,3,2,25,2,25,9,1,yes
9,1,2,2,0,2,1,1,1,1,2,2,0,no
5,0,1,1,0,0,0,0,0,0,0,0,0,no
17,1,2,1,1,4,2,1,1,3,2,2,1,no
3,0,0,0,0,0,1,1,3,0,3,3,0,no
26,1,4,2,2,6,2,1,5,1,4,3,1,no
19,0,1,1,0,0,1,1,19,0,19,19,0,no
4,0,0,0,0,0,2,1,4,0,3,2,0,no
9,1,2,2,0,2,2,1,10,1,9,5.5,0,no
43,3,7,1,2,11,3,2,6,2,4,2.666667,1,yes
22,1,4,2,3,3,3,2,24,2,22,8.666667,1,no
21,1,4,2,1,2,2,1,21,0,19,10.5,0,no
47,2,8,2,2,10,2,1,47,0,46,23.5,0,no
14,2,1,2,2,2,2,2,2,2,2,2,0,no
17,0,4,3,1,3,5,3,16,4,5,4,1,no
3,1,0,0,0,0,1,1,3,0,3,3,1,no
2,0,0,0,0,0,1,1,2,0,2,2,0,no
2,1,0,0,0,0,1,1,2,0,2,2,0,no
5,1,1,1,0,0,1,1,5,0,5,5,0,no
2,0,0,0,0,0,1,1,2,0,2,2,0,no
0,1,0,0,1,0,1,1,0,0,0,0,0,no
0,3,0,0,1,0,1,1,0,0,0,0,0,no
5,2,0,0,0,0,2,1,5,0,4,2.5,1,no
31,1,7,3,1,1,4,1,32,1,26,8.25,1,no
9,1,2,1,1,1,1,1,9,0,9,9,0,no
7,1,1,1,0,0,1,1,7,0,7,7,1,no
3,0,0,0,0,0,1,1,3,0,3,3,1,no
7,0,1,1,0,0,1,1,7,0,7,7,1,no
3,0,0,0,0,0,1,1,3,0,3,3,0,no
4,0,0,0,0,0,1,1,4,0,4,4,1,no
3,0,0,0,0,0,1,1,3,0,3,3,0,no
3,0,0,0,0,0,1,1,3,0,3,3,0,no
4,0,0,0,0,0,1,1,4,0,4,4,1,no
41,2,8,3,2,4,1,1,41,0,41,41,0,no
3,2,0,0,0,0,1,1,0,8,8,8,1,no
13,2,2,2,0,2,2,1,13,0,12,6.5,1,no
34,0,7,3,0,3,5,1,35,1,29,7.2,1,no
10,0,2,2,0,0,2,2,2,2,2,2,1,no
11,0,1,1,0,0,1,1,11,0,11,11,1,no
8,0,1,1,0,1,1,1,1,0,1,1,1,no
3,0,0,0,0,0,0,0,0,0,0,0,0,no
22,2,3,3,0,3,2,1,3,0,2,1.5,1,no
11,0,0,0,0,1,2,1,11,0,10,5.5,1,no
22,1,4,1,2,3,4,3,32,10,30,10.5,1,no
31,1,8,6,0,5,4,3,32,1,23,8.25,1,no
8,1,1,1,0,2,1,1,8,0,8,8,1,no
20,2,5,3,1,3,2,2,20,0,18,10,1,no
47,1,7,3,4,8,2,1,48,1,47,24.5,0,no
22,1,4,2,1,2,1,1,22,0,22,22,1,no
4,1,0,0,0,1,1,1,4,0,4,4,0,no
34,1,5,4,0,5,3,2,35,1,30,12,1,no
58,1,9,4,0,10,5,3,59,1,48,12,1,no
9,2,2,1,3,0,1,1,9,0,9,9,1,no
20,2,5,4,0,3,1,1,20,0,20,20,1,no
3,2,0,0,0,0,2,2,6,3,6,4.5,1,no
5,1,1,1,0,0,1,1,5,0,5,5,1,no
0,1,0,0,1,0,1,1,0,0,0,0,0,no
0,1,0,0,2,0,1,1,0,0,0,0,0,no
52,6,10,2,2,0,1,1,52,0,52,52,1,no
24,1,4,1,3,2,2,1,24,0,19,12,1,no
30,1,5,2,1,5,3,3,33,3,32,12,1,yes
14,0,4,3,1,3,4,2,17,3,14,5,0,no
3,0,0,0,0,0,4,2,14,11,12,6.25,0,no
7,2,0,0,1,2,2,2,11,4,11,7.5,1,no
24,1,5,2,2,4,5,3,26,2,11,5.6,1,no
5,1,1,1,0,0,1,1,5,0,5,5,0,no
28,0,4,2,0,1,5,3,37,9,35,9.2,1,no
7,0,1,1,0,0,1,1,7,0,7,7,0,no
11,2,2,2,0,2,1,1,11,0,11,11,0,no
10,1,2,2,0,0,1,1,10,0,10,10,0,no
3,1,0,0,0,0,1,1,3,0,3,3,0,no
3,1,0,0,0,0,2,1,4,1,3,2.5,1,no
10,0,2,1,0,0,1,1,10,0,10,10,1,no
30,3,4,2,0,0,2,1,30,0,27,15,1,no
10,2,1,1,0,0,1,1,10,0,10,10,1,no
5,1,0,0,0,0,1,1,5,0,5,5,1,no
10,2,1,1,0,1,1,1,10,0,10,10,1,no
3,1,0,0,0,0,1,1,3,0,3,3,1,no
6,0,1,1,0,0,1,1,6,0,6,6,1,no
3,0,0,0,0,0,1,1,3,0,3,3,1,no
7,1,1,1,0,1,1,1,7,0,7,7,1,no
5,0,0,0,0,1,1,1,5,0,5,5,1,no
3,1,0,0,0,0,1,1,3,0,3,3,1,no
3,1,0,0,0,0,1,1,3,0,3,3,1,no
3,3,0,0,0,0,1,1,3,0,3,3,0,no
0,3,0,0,1,0,1,1,0,0,0,0,1,no
0,2,0,0,0,0,1,1,0,0,0,0,0,no
0,1,0,0,0,0,1,1,0,0,0,0,0,no
3,1,0,0,0,0,1,1,3,0,3,3,0,no
12,2,1,1,0,1,2,1,13,1,12,7,0,no
11,1,1,1,0,1,2,1,12,1,11,6.5,0,no
6,4,0,0,0,0,1,1,6,0,6,6,1,no
9,1,0,0,0,3,1,1,9,0,9,9,0,no
22,0,4,1,0,1,2,2,24,2,24,13,1,no
11,2,2,1,0,1,2,2,12,1,11,6.5,1,no
3,0,0,0,0,0,1,1,3,0,3,3,0,no
3,1,0,0,0,0,1,1,3,0,3,3,1,no
3,0,0,0,1,0,1,1,3,0,3,3,0,no
3,1,0,0,0,0,1,1,3,0,3,3,0,no
3,1,0,0,0,0,1,1,3,0,3,3,0,no
3,1,0,0,0,0,1,1,3,0,3,3,1,no
3,2,0,0,0,0,1,1,3,0,3,3,0,no
9,0,1,1,0,0,2,1,9,0,5,4.5,1,no
3,0,0,0,0,0,1,1,3,0,3,3,0,no
10,2,0,0,0,0,1,1,10,0,10,10,0,no
11,2,2,2,0,2,1,1,11,0,11,11,0,no
16,0,4,4,1,5,2,2,16,0,14,8,0,no
3,0,0,0,0,0,1,1,3,0,3,3,0,no
3,0,0,0,0,0,1,1,3,0,3,3,0,no
21,2,4,3,0,6,1,1,21,0,21,21,0,no
6,3,0,0,0,2,1,1,6,0,6,6,0,no
3,0,0,0,0,0,1,1,3,0,3,3,0,no
25,1,5,2,1,4,3,2,28,3,27,10.333333,0,no
3,0,0,0,0,0,1,1,3,0,3,3,0,no
63,0,11,6,0,8,5,3,65,2,58,13.4,1,yes
38,3,6,3,0,6,1,1,38,0,38,38,0,no
12,0,2,2,0,0,1,1,12,0,12,12,0,no
6,1,1,1,0,0,1,1,6,0,6,6,0,no
0,1,0,0,1,0,1,1,0,0,0,0,0,no
7,1,1,1,1,0,2,2,8,1,7,4.5,0,no
0,3,0,0,1,0,1,1,0,0,0,0,0,no
4,2,0,0,0,0,1,1,4,0,4,4,0,no
3,0,0,0,0,0,1,1,3,0,3,3,0,no
3,0,0,0,0,0,1,1,3,0,3,3,0,no
3,0,0,0,0,0,1,1,3,0,3,3,0,no
3,0,0,0,0,0,1,1,3,0,3,3,0,no
29,0,5,4,1,8,3,2,30,1,23,10.333333,0,no
23,0,2,2,2,6,5,2,26,3,20,5.8,1,no
4,2,0,0,0,0,1,1,4,0,4,4,0,no
5,0,0,0,0,1,1,1,5,0,5,5,0,no
7,5,0,0,0,0,1,1,7,0,7,7,0,no
3,2,0,0,0,0,1,1,3,0,3,3,0,no
52,3,7,4,0,6,1,1,52,0,52,52,0,no
3,0,0,0,0,0,1,1,3,0,3,3,0,no
6,0,1,1,0,0,1,1,6,0,6,6,0,no
3,0,0,0,0,0,1,1,3,0,3,3,0,no
7,0,1,1,0,0,1,1,7,0,7,7,0,no
3,1,0,0,0,0,1,1,3,0,3,3,0,no
0,1,0,0,0,0,3,1,2,25,23,9,1,no
0,1,0,0,0,0,4,1,2,97,66,24.75,1,no
0,2,0,0,0,0,3,1,2,21,19,7.666667,1,no
0,0,0,0,0,0,1,1,0,0,0,0,0,no
0,1,0,0,0,0,2,1,1,21,20,11,0,no
0,1,0,0,0,0,1,1,0,0,0,0,1,no
0,1,0,0,0,0,1,1,0,0,0,0,0,no
0,3,0,0,0,0,2,1,1,18,17,9.5,0,no
0,1,0,0,0,0,1,1,0,0,0,0,0,no
0,1,0,0,0,0,1,1,0,0,0,0,1,no
0,2,0,0,0,0,1,1,0,0,0,0,0,no
16,3,1,1,2,0,1,1,16,0,16,16,0,no
11,0,2,2,0,2,2,1,11,0,8,5.5,1,no
35,1,3,2,0,2,6,3,38,3,23,6.833333,1,no
9,0,1,1,0,1,2,1,9,0,7,4.5,1,no
10,1,2,2,0,3,2,1,11,1,10,6,0,no
46,1,11,4,0,5,5,2,48,2,29,10,1,no
81,1,14,4,2,17,4,2,84,3,73,21.75,1,no
32,0,11,9,2,6,3,2,33,1,19,11.333333,0,no
3,0,0,0,0,0,1,1,3,0,3,3,0,no
15,2,2,2,0,3,2,2,19,4,19,11.5,1,no
24,2,4,3,0,2,7,2,33,9,30,6,1,no
7,3,1,1,1,1,1,1,7,0,7,7,0,no
40,0,0,0,0,0,2,1,41,1,40,21,0,no
51,1,11,5,0,10,1,1,51,0,51,51,0,no
3,1,0,0,0,0,1,1,3,0,3,3,1,no
17,0,0,0,0,0,1,1,17,0,17,17,0,no
12,3,2,1,0,1,2,2,13,1,13,7,1,no
12,1,0,0,0,3,2,1,13,1,12,7,0,no
5,2,0,0,0,2,1,1,5,0,5,5,1,no
3,0,0,0,0,0,1,1,3,0,3,3,0,no
3,0,0,0,0,0,1,1,3,0,3,3,0,no
3,0,0,0,0,0,1,1,3,0,3,3,0,no
60,2,11,3,1,6,3,2,60,0,52,20,1,no
16,2,1,1,0,1,1,1,16,0,16,16,1,no
11,1,1,2,0,1,2,2,14,3,14,8.5,1,no
12,1,2,2,0,2,1,1,12,0,12,12,0,no
4,2,0,0,0,1,2,1,5,1,4,3,1,no
10,3,1,1,0,3,3,3,17,7,17,8,1,no
8,2,1,1,1,1,1,1,8,0,8,8,0,no
18,1,2,2,0,3,2,1,20,2,20,11,1,no
11,1,1,2,0,1,2,2,14,3,14,8.5,1,no
10,2,1,2,0,1,2,1,10,0,7,5,1,no
19,1,3,2,0,2,1,1,19,0,19,19,0,no
26,5,7,2,0,4,3,2,28,2,26,10,0,no
3,2,0,0,0,0,1,1,3,0,3,3,0,no
3,0,0,0,0,0,2,2,6,0,3,3,1,no
3,0,0,0,0,0,2,2,6,0,3,3,1,no
3,0,0,0,0,0,2,2,6,0,3,3,1,no
3,0,0,0,0,0,2,2,6,0,3,3,1,no
3,0,0,0,0,0,2,2,6,0,3,3,1,no
3,0,0,0,0,0,2,2,6,0,3,3,1,no
3,0,0,0,0,0,2,2,6,0,3,3,1,no
3,0,0,0,0,0,2,2,6,0,3,3,1,no
3,0,0,0,0,0,2,2,6,0,3,3,1,no
2,0,0,0,0,0,1,1,2,0,2,2,0,no
2,1,0,0,0,0,1,1,2,0,2,2,0,no
3,1,0,0,0,0,1,1,3,0,3,3,0,no
2,0,0,0,0,0,1,1,2,0,2,2,0,no
0,0,0,0,1,0,1,1,0,0,0,0,0,no
0,0,0,0,1,0,1,1,0,0,0,0,0,no
0,0,0,0,1,0,1,1,0,0,0,0,0,no
0,0,0,0,1,0,1,1,0,0,0,0,0,no
0,0,0,0,1,0,1,1,0,0,0,0,0,no
0,0,0,0,1,0,1,1,0,0,0,0,0,no
0,0,0,0,1,0,1,1,0,0,0,0,0,no
0,1,0,0,0,0,1,1,0,11,11,11,0,no
0,1,0,0,0,0,2,1,16,16,16,16,1,no
5,3,0,0,0,1,1,1,5,0,5,5,0,no
6,2,1,1,0,0,1,1,6,0,6,6,0,no
0,0,0,0,0,0,2,1,3,3,3,3,0,no
0,0,0,0,0,0,2,1,3,3,3,3,0,no
0,1,0,0,0,0,5,1,6,45,32,10.2,1,no
0,0,0,0,0,0,2,1,3,3,3,3,0,no
5,3,0,0,0,0,1,1,5,0,5,5,0,no
8,1,1,1,0,1,2,1,11,3,11,7,0,no
5,1,1,1,0,0,1,1,5,0,5,5,0,no
3,0,0,0,0,0,1,1,3,0,3,3,0,no
3,0,0,0,0,0,2,1,4,1,3,2.5,1,no
3,1,0,0,0,0,2,1,11,8,11,9.5,0,no
3,0,0,0,0,0,2,1,4,1,3,2.5,1,no
3,2,0,0,0,0,1,1,3,0,3,3,0,no
4,1,0,0,0,0,1,1,4,0,4,4,0,no
4,1,0,0,0,0,1,1,4,0,4,4,0,no
4,0,0,0,0,0,1,1,4,0,4,4,0,no
8,1,0,0,0,0,1,1,8,0,8,8,0,no
5,1,1,1,0,0,1,1,5,0,5,5,0,no
14,1,2,2,1,3,1,1,14,0,14,14,0,no
3,0,0,0,0,0,1,1,3,0,3,3,0,no
9,0,1,1,0,2,1,1,9,0,9,9,0,no
3,1,0,0,0,0,1,1,3,0,3,3,0,no
3,0,0,0,0,0,2,1,4,1,4,2.5,1,no
14,1,2,2,0,4,1,1,14,0,14,14,1,no
7,0,1,1,0,0,1,1,7,0,7,7,0,no
4,0,0,0,0,0,1,1,4,0,4,4,0,no
0,0,0,0,0,0,1,1,0,0,0,0,0,no
0,1,0,0,0,0,1,1,0,0,0,0,0,no
0,1,0,0,0,0,1,1,0,0,0,0,0,no
0,0,0,0,0,0,1,1,0,0,0,0,0,no
3,1,0,0,0,0,1,1,3,0,3,3,0,no
37,0,10,5,0,5,1,1,37,0,37,37,0,yes
3,1,0,0,0,0,1,1,3,0,3,3,0,no
5,2,0,0,0,0,1,1,5,0,5,5,0,no
5,0,1,1,0,0,0,0,0,0,0,0,0,no
8,1,1,1,0,1,1,1,4,0,4,4,0,no
3,0,0,0,0,0,0,0,0,0,0,0,0,no
8,0,2,2,0,1,1,1,1,1,2,2,0,no
3,0,0,0,0,0,0,0,0,0,0,0,0,no
4,1,0,0,0,0,0,0,0,0,0,0,0,no
5,0,0,0,0,0,0,0,0,0,0,0,0,no
3,0,0,0,0,0,0,0,0,0,0,0,0,no
3,0,0,0,0,0,0,0,0,0,0,0,0,no
3,0,0,0,0,0,0,0,0,0,0,0,0,no
3,0,0,0,0,0,0,0,0,0,0,0,0,no
3,0,0,0,0,0,0,0,0,0,0,0,0,no
3,0,0,0,0,0,0,0,0,0,0,0,0,no
10,1,2,2,0,0,0,0,0,0,0,0,0,no
6,0,1,1,0,0,0,0,0,0,0,0,0,no
3,1,0,0,1,0,0,0,0,0,0,0,0,no
6,1,1,1,0,0,1,1,1,1,2,2,0,no
3,1,0,0,0,0,0,0,0,0,0,0,0,no
6,2,0,0,0,0,0,0,0,0,0,0,0,no
9,0,1,0,0,1,0,0,0,0,0,0,0,no
3,0,0,0,0,0,0,0,0,0,0,0,0,no
3,0,0,0,0,0,0,0,0,0,0,0,0,no
6,0,0,0,0,0,0,0,0,0,0,0,0,no
0,1,0,0,0,0,1,1,0,0,0,0,0,no
0,0,0,0,0,0,1,1,0,0,0,0,0,no
0,2,0,0,0,0,1,1,0,0,0,0,0,no
0,0,0,0,0,0,1,1,0,0,0,0,0,no
0,1,0,0,0,0,1,1,0,0,0,0,1,no
0,0,0,0,0,0,1,1,0,0,0,0,0,no
0,1,0,0,0,0,1,1,0,0,0,0,0,no
0,1,0,0,0,0,1,1,0,0,0,0,0,no
0,1,0,0,0,0,1,1,0,0,0,0,1,no
0,2,0,0,0,0,1,1,0,0,0,0,0,no
0,0,0,0,0,0,1,1,0,0,0,0,0,no
0,0,0,0,0,0,1,1,0,0,0,0,0,no
2,1,0,0,0,0,0,0,0,0,0,0,0,no
2,0,0,0,0,0,0,0,0,0,0,0,0,no
3,3,0,0,0,0,0,0,0,0,0,0,0,no
3,3,0,0,0,0,0,0,0,0,0,0,0,no
3,0,0,0,0,0,0,0,0,0,0,0,0,no
3,1,0,0,0,0,0,0,0,0,0,0,0,no
3,1,0,0,0,0,0,0,0,0,0,0,0,no
3,2,0,0,0,0,0,0,0,0,0,0,0,no
3,3,0,0,0,0,0,0,0,0,0,0,0,no
3,0,0,0,0,0,0,0,0,0,0,0,0,no
3,3,0,0,0,0,0,0,0,0,0,0,0,no
3,3,0,0,0,0,0,0,0,0,0,0,0,no
3,1,0,0,0,0,0,0,0,0,0,0,0,no
3,3,0,0,0,0,0,0,0,0,0,0,0,no
3,1,0,0,0,0,0,0,0,0,0,0,0,no
3,2,0,0,0,0,0,0,0,0,0,0,0,no
3,3,0,0,0,0,0,0,0,0,0,0,0,no
3,1,0,0,0,0,2,1,4,1,3,2.5,0,no
3,2,0,0,0,0,1,1,3,0,3,3,0,no
3,0,0,0,0,0,1,1,3,0,3,3,0,no
2,0,0,0,0,0,1,1,2,0,2,2,0,no
3,1,0,0,0,0,1,1,3,0,3,3,0,no
4,2,0,0,0,0,1,1,4,0,4,4,0,no
4,2,0,0,0,0,1,1,4,0,4,4,0,no
37,1,8,4,1,9,1,1,37,0,37,37,0,yes
0,4,0,0,0,0,0,0,0,0,0,0,0,no
0,3,0,0,0,0,0,0,0,0,0,0,0,no
0,3,0,0,0,0,0,0,0,0,0,0,0,no
0,2,0,0,0,0,0,0,0,0,0,0,0,no
0,3,0,0,1,0,0,0,0,0,0,0,0,no
0,4,0,0,0,0,0,0,0,0,0,0,0,no
0,3,0,0,0,0,1,1,0,0,0,0,0,no
0,2,0,0,0,0,0,0,0,0,0,0,0,no
15,1,0,0,0,1,9,3,26,11,12,4.111111,1,no
4,2,0,0,0,0,1,1,4,0,4,4,0,no
19,3,2,1,0,0,8,3,21,2,11,2.875,1,no
3,1,0,0,0,0,1,1,0,9,9,9,0,no
3,6,0,0,0,0,3,3,8,8,7,5.333333,1,no
6,7,1,1,1,0,1,1,6,0,6,6,0,yes
3,3,0,0,1,0,2,2,7,7,7,7,1,yes
3,5,0,0,1,0,4,3,9,9,7,4.5,1,yes
3,5,0,0,1,0,4,3,11,8,7,4.75,1,yes
23,0,5,1,0,0,6,2,25,2,12,4.5,1,yes
3,2,0,0,0,0,0,0,0,0,0,0,0,no
3,4,0,0,0,0,2,1,1,9,8,5,0,no
11,5,1,1,1,1,1,1,11,0,11,11,0,yes
10,1,1,1,1,1,4,1,5,5,3,2.5,1,no
3,0,0,0,0,0,0,0,0,0,0,0,0,no
3,0,0,0,0,0,1,1,3,0,3,3,0,no
3,0,0,0,0,0,1,1,3,0,3,3,1,no
3,0,0,0,0,0,0,0,0,0,0,0,0,no
9,3,1,1,1,1,1,1,1,1,2,2,0,no
9,3,1,1,1,1,2,1,10,1,9,5.5,0,no
6,3,0,0,0,1,1,1,6,0,6,6,0,no
5,2,0,0,0,1,1,1,5,0,5,5,0,no
7,3,0,0,0,1,2,2,8,1,7,4.5,0,no
0,0,0,0,1,0,1,1,0,0,0,0,1,no
0,1,0,0,1,0,1,1,0,0,0,0,1,no
6,1,0,0,0,0,1,1,6,0,6,6,0,no
7,1,0,0,0,1,7,2,21,14,13,5,1,no
3,1,0,0,0,0,2,1,11,8,11,9.5,0,no
3,3,0,0,0,0,1,1,3,0,3,3,0,no
3,3,0,0,0,0,1,1,3,0,3,3,0,no
13,4,1,1,2,0,3,2,15,2,13,5.666667,1,no
3,4,0,0,0,0,1,1,3,0,3,3,0,no
4,0,0,0,0,0,1,1,4,0,4,4,0,no
54,3,10,4,0,7,4,4,56,2,53,14.5,1,yes
19,5,0,0,1,2,2,1,26,7,26,16.5,1,no
4,0,0,0,0,0,1,1,4,0,4,4,0,yes
31,4,5,3,2,3,5,3,34,3,28,7.4,1,no
9,2,1,1,1,1,1,1,9,0,9,9,1,no
10,1,1,1,0,1,1,1,10,0,10,10,0,no
10,1,1,1,0,1,1,1,10,0,10,10,0,no
23,2,2,1,2,2,2,2,23,0,19,11.5,1,no
87,4,17,5,5,16,6,2,92,5,53,16.166667,1,no
11,3,1,1,0,3,3,1,12,1,9,4.333333,0,no
20,4,4,2,2,2,5,2,26,6,21,6.4,1,no
8,3,1,1,2,0,1,1,8,0,8,8,0,no
81,3,17,5,5,16,3,2,82,1,70,27.666667,0,no
8,3,1,1,1,0,1,1,8,0,8,8,0,no
3,2,0,0,0,0,1,1,3,0,3,3,1,no
9,2,0,0,2,1,2,2,9,0,8,4.5,1,no
3,1,0,0,0,0,1,1,3,0,3,3,1,no
3,3,0,0,0,0,1,1,3,0,3,3,1,yes
3,1,0,0,0,0,1,1,3,0,3,3,0,no
4,3,0,0,0,0,2,1,8,4,8,6,0,no
4,0,0,0,0,0,2,2,4,0,3,2,1,no
6,3,0,0,0,0,1,1,6,0,6,6,1,no
14,1,2,2,2,3,1,1,14,0,14,14,0,no
3,1,0,0,0,0,0,0,0,0,0,0,0,no
22,2,4,2,1,3,0,0,0,0,0,0,0,no
3,0,0,0,0,0,1,1,3,0,3,3,0,yes
3,1,0,0,1,0,0,0,0,0,0,0,0,no
3,1,0,0,0,0,0,0,0,0,0,0,0,no
18,4,2,1,0,2,5,3,8,10,8,3.6,1,yes
3,0,0,0,0,0,0,0,0,0,0,0,0,no
3,1,0,0,0,0,1,1,1,1,2,2,1,no
19,0,2,1,0,2,1,1,1,0,1,1,0,no
9,4,1,1,0,0,0,0,0,0,0,0,0,no
3,0,0,0,0,0,0,0,0,0,0,0,0,no
10,2,2,2,1,0,2,2,11,1,10,6,0,no
3,0,0,0,1,0,1,1,3,0,3,3,0,no
3,1,0,0,0,0,1,1,3,0,3,3,0,no
8,4,1,1,1,1,1,1,8,0,8,8,0,no
3,0,0,0,0,0,1,1,3,0,3,3,0,no
3,1,0,0,0,0,1,1,3,0,3,3,0,no
18,0,2,1,0,2,1,1,18,0,18,18,0,no
9,4,1,1,0,0,1,1,9,0,9,9,0,no
3,1,0,0,0,0,0,0,0,0,0,0,0,no
3,0,0,0,0,0,0,0,0,0,0,0,0,no
7,0,0,0,0,2,1,1,1,1,2,2,0,no
3,3,0,0,0,0,1,1,1,1,2,2,0,no
3,0,0,0,0,0,1,1,3,0,3,3,0,no
4,1,0,0,0,0,0,0,0,0,0,0,0,no
17,6,0,0,0,3,1,1,17,0,17,17,0,no
0,0,0,0,0,0,0,0,0,0,0,0,0,no
0,0,0,0,0,0,0,0,0,0,0,0,0,no
10,3,3,1,0,0,0,0,0,0,0,0,0,no
3,1,0,0,0,0,0,0,0,0,0,0,0,no
0,3,0,0,0,0,0,0,0,0,0,0,0,no
3,1,0,0,0,0,1,1,1,1,2,2,1,no
3,2,0,0,0,0,0,0,0,0,0,0,0,no
28,3,5,2,3,6,1,1,4,0,4,4,0,no
5,2,0,0,0,0,0,0,0,0,0,0,0,no
8,1,0,0,0,2,2,1,2,2,2,2,1,no
4,2,0,0,0,0,1,1,4,0,4,4,0,no
0,0,0,0,1,0,1,1,0,0,0,0,0,no
0,0,0,0,1,0,1,1,0,0,0,0,1,no
0,1,0,0,1,0,1,1,0,0,0,0,0,no
0,2,0,0,1,0,1,1,0,0,0,0,0,no
0,1,0,0,1,0,1,1,0,0,0,0,0,no
0,1,0,0,1,0,1,1,0,0,0,0,0,no
0,1,0,0,1,0,1,1,0,0,0,0,1,no
3,1,0,0,0,0,1,1,3,0,3,3,0,no
16,2,3,2,1,2,1,1,16,0,16,16,0,no
43,2,9,3,0,12,4,1,46,3,44,12.25,0,yes
19,2,3,2,0,4,1,1,19,0,19,19,0,no
6,2,1,1,0,0,1,1,6,0,6,6,0,no
4,2,0,0,0,0,1,1,4,0,4,4,0,no
8,5,2,1,0,0,1,1,8,0,8,8,0,no
5,2,0,0,0,0,1,1,5,0,5,5,0,no
8,2,2,1,0,0,1,1,8,0,8,8,0,yes
5,3,0,0,0,0,1,1,5,0,5,5,0,no
9,5,3,2,0,0,1,1,9,0,9,9,0,no
8,8,0,0,0,0,1,1,8,0,8,8,0,no
12,0,1,1,0,1,5,1,13,4,9,3.4,1,no
18,2,3,1,2,0,1,1,18,0,18,18,0,no
7,4,0,0,0,0,1,1,1,0,1,1,1,no
3,0,0,0,0,0,3,2,3,3,2,2,1,no
3,2,0,0,0,0,1,1,3,0,3,3,1,no
4,2,0,0,0,0,0,0,0,0,0,0,0,no
10,0,1,1,0,1,1,1,1,1,2,2,0,no
3,0,0,0,0,0,0,0,0,0,0,0,0,no
3,0,0,0,0,0,0,0,0,0,0,0,0,no
3,0,0,0,0,0,0,0,0,0,0,0,0,no
3,0,0,0,0,0,0,0,0,0,0,0,0,no
10,4,0,0,0,1,1,1,10,0,10,10,0,no
3,0,0,0,0,0,1,1,3,0,3,3,0,no
3,0,0,0,0,0,1,1,3,0,3,3,0,no
3,0,0,0,0,0,1,1,3,0,3,3,0,no
3,0,0,0,0,0,1,1,3,0,3,3,0,no
11,0,2,2,0,2,2,1,12,1,11,6.5,0,no
3,0,0,0,0,0,1,1,3,0,3,3,0,no
11,0,2,2,0,2,2,1,12,1,11,6.5,0,no
3,0,0,0,0,0,1,1,3,0,3,3,0,no
3,0,0,0,0,0,1,1,3,0,3,3,0,no
3,0,0,0,0,0,2,1,4,1,3,2.5,0,no
3,1,0,0,0,0,1,1,3,0,3,3,0,no
28,4,3,2,2,3,1,1,28,0,28,28,0,no
5,4,0,0,1,1,1,1,5,0,5,5,0,no
27,4,5,1,1,7,1,1,27,0,27,27,0,no
21,4,3,3,0,0,1,1,21,0,21,21,0,no
26,3,4,1,1,8,1,1,26,0,26,26,0,no
7,5,0,0,0,2,1,1,7,0,7,7,0,no
7,3,1,1,0,0,1,1,7,0,7,7,0,no
23,4,3,2,2,3,1,1,23,0,23,23,0,yes
10,5,2,2,1,0,1,1,10,0,10,10,0,no
7,5,0,0,0,0,1,1,7,0,7,7,0,no
8,3,1,1,1,0,2,1,9,1,8,5,0,yes
7,5,0,0,0,0,1,1,7,0,7,7,0,no
23,2,3,2,4,0,1,1,23,0,23,23,0,no
9,2,1,1,1,0,1,1,9,0,9,9,0,no
16,5,1,1,0,0,6,2,23,7,20,5,1,no
3,1,0,0,0,0,3,2,2,7,5,3,1,no
12,3,1,1,0,2,5,2,14,2,8,3.2,1,no
4,1,0,0,0,0,0,0,0,0,0,0,0,no
3,3,0,0,0,0,1,1,0,26,26,26,0,no
4,5,0,0,1,1,3,2,37,33,33,23.333333,1,no
3,2,0,0,0,0,1,1,1,1,2,2,0,no
65,3,6,3,4,3,6,3,66,1,30,11.166667,1,yes
11,4,2,1,0,0,1,1,1,1,2,2,1,no
15,2,1,1,0,1,3,2,16,1,12,5.666667,1,yes
4,5,0,0,1,1,1,1,4,0,4,4,0,no
9,0,1,1,0,1,2,1,4,1,3,2.5,1,no
30,6,3,1,3,3,5,3,38,8,32,9.2,1,yes
6,1,1,1,0,1,0,0,0,0,0,0,0,no
3,0,0,0,0,0,0,0,0,0,0,0,0,no
3,0,0,0,0,0,0,0,0,0,0,0,0,no
3,0,0,0,0,0,0,0,0,0,0,0,0,no
3,0,0,0,0,0,0,0,0,0,0,0,0,no
3,0,0,0,0,0,0,0,0,0,0,0,0,no
3,0,0,0,0,0,1,1,1,1,2,2,0,no
3,0,0,0,0,0,0,0,0,0,0,0,0,no
3,0,0,0,0,0,0,0,0,0,0,0,0,no
19,2,2,1,1,2,9,3,34,52,38,9.555556,1,no
7,1,1,1,0,0,2,1,5,1,4,3,1,no
10,2,1,1,0,1,1,1,1,1,2,2,0,no
12,0,2,1,1,1,2,1,13,1,12,7,0,no
36,1,5,2,2,0,6,2,32,3,25,5.833333,1,no
16,2,1,1,1,3,1,1,16,0,16,16,1,no
3,1,0,0,0,0,4,2,20,17,18,9.25,1,no
11,0,2,2,0,1,1,1,1,1,2,2,0,no
5,1,1,1,0,1,1,1,5,0,5,5,1,no
4,1,0,0,0,0,2,2,6,2,6,4,0,no
20,2,3,2,1,0,1,1,20,0,20,20,1,no
8,2,1,1,0,0,1,1,8,0,8,8,1,no
10,2,1,1,0,0,2,2,11,1,10,6,1,no
4,0,0,0,0,1,1,1,4,0,4,4,0,no
60,0,6,3,4,3,7,3,49,3,30,7.428571,1,yes
3,0,0,0,0,0,1,1,3,0,3,3,1,no
35,2,5,3,3,0,1,1,35,0,35,35,1,yes
23,2,3,2,2,0,1,1,23,0,23,23,1,yes
4,1,0,0,0,0,2,1,4,0,3,2,1,no
12,2,2,2,1,0,1,1,12,0,12,12,1,no
5,3,0,0,1,0,1,1,5,0,5,5,1,no
3,0,0,0,0,0,3,2,5,2,3,2.333333,1,no
3,0,0,0,0,0,1,1,3,0,3,3,0,no
3,0,0,0,0,0,1,1,3,0,3,3,0,no
3,0,0,0,1,0,3,2,5,2,3,2.333333,1,no
3,1,0,0,0,0,1,1,3,0,3,3,0,no
3,1,0,0,0,0,1,1,3,0,3,3,0,no
5,3,1,1,1,0,2,1,4,1,3,2.5,1,no
5,2,0,0,0,0,2,1,5,0,4,2.5,1,no
16,1,3,2,1,0,3,2,17,1,15,6,1,yes
11,2,2,2,2,0,2,2,12,1,11,6.5,1,no
6,4,0,0,0,1,2,1,6,0,5,3,1,no
8,3,0,0,1,1,1,1,8,0,8,8,0,no
9,4,0,0,1,1,1,1,9,0,9,9,0,no
8,3,0,0,1,1,1,1,8,0,8,8,0,no
4,0,0,0,0,0,2,2,2,1,2,1.5,0,no
19,1,1,1,0,3,1,1,19,0,19,19,0,no
12,5,1,0,0,0,1,1,12,0,12,12,0,no
5,2,0,0,1,0,0,0,0,0,0,0,0,no
4,1,0,0,0,0,1,1,1,0,1,1,1,no
3,0,0,0,0,0,1,1,3,0,3,3,0,no
7,0,1,1,0,0,1,1,7,0,7,7,0,no
3,1,0,0,1,0,0,0,0,0,0,0,0,no
3,0,0,0,0,0,1,1,3,0,3,3,1,no
3,0,0,0,0,0,0,0,0,0,0,0,0,no
3,0,0,0,0,0,1,1,3,0,3,3,1,no
3,0,0,0,0,0,1,1,3,0,3,3,1,no
8,1,1,1,0,1,0,0,0,0,0,0,0,no
3,0,0,0,0,0,1,1,3,0,3,3,0,no
3,0,0,0,0,0,1,1,3,0,3,3,1,no
3,0,0,0,0,0,1,1,3,0,3,3,0,no
3,0,0,0,0,0,1,1,3,0,3,3,0,no
3,0,0,0,0,0,1,1,3,0,3,3,0,no
3,0,0,0,0,0,2,1,2,2,2,2,1,no
3,0,0,0,0,0,2,1,4,1,3,2.5,1,no
3,0,0,0,0,0,2,1,4,1,3,2.5,1,no
52,2,8,2,3,11,7,3,57,5,43,8.857143,1,no
32,2,5,4,6,5,2,1,33,1,32,17,1,no
28,1,7,3,0,5,7,2,32,4,23,5.142857,1,no
23,0,4,2,0,5,6,4,9,4,3,2.166667,1,no
19,0,4,2,0,3,5,4,24,5,21,5.8,1,no
3,1,0,0,0,0,1,1,3,0,3,3,1,no
3,1,0,0,0,0,1,1,3,0,3,3,1,no
3,1,0,0,0,0,1,1,3,0,3,3,0,no
8,6,0,0,0,0,2,2,9,1,9,5,0,no
9,4,0,0,0,0,1,1,9,0,9,9,0,no
3,0,0,0,0,0,2,1,2,2,2,2,1,no
4,0,0,0,0,0,1,1,4,0,4,4,0,no
68,2,12,3,2,2,3,2,69,1,47,23.333333,1,yes
9,2,2,2,0,0,1,1,9,0,9,9,1,yes
8,3,1,1,0,0,1,1,8,0,8,8,1,yes
5,2,0,0,0,0,1,1,1,1,2,2,1,no
8,4,1,1,1,0,1,1,1,1,2,2,1,no
8,0,1,1,0,1,1,1,4,0,4,4,0,no
17,0,2,2,0,1,6,2,14,2,8,2.666667,1,no
29,4,3,2,4,2,6,2,14,4,9,3,1,yes
9,3,1,1,2,0,2,2,10,1,9,5.5,1,yes
12,2,2,2,0,0,3,1,12,0,9,4,1,no
3,6,0,0,0,0,1,1,3,0,3,3,0,no
3,0,0,0,0,0,1,1,3,0,3,3,0,no
4,2,0,0,0,0,1,1,0,3,3,3,0,no
6,2,0,0,0,1,1,1,1,1,2,2,0,no
3,0,0,0,0,0,0,0,0,0,0,0,0,no
3,0,0,0,0,0,1,1,1,1,2,2,0,no
3,3,0,0,0,0,1,1,1,1,2,2,0,no
12,0,1,1,0,3,1,1,12,0,12,12,0,no
13,6,0,0,1,0,2,1,14,1,13,7.5,1,no
3,0,0,0,0,0,1,1,3,0,3,3,0,no
3,0,0,0,0,0,0,0,0,0,0,0,0,no
32,0,7,4,1,6,7,2,28,14,11,6,1,yes
3,0,0,0,0,0,0,0,0,0,0,0,0,no
17,5,4,2,1,2,9,3,12,21,9,3.666667,1,no
4,2,0,0,0,0,5,2,8,4,4,2.4,1,no
3,0,0,0,0,0,0,0,0,0,0,0,0,no
7,1,1,1,2,0,4,1,7,3,3,2.5,1,no
14,0,4,3,0,2,2,1,14,0,7,7,1,no
7,3,0,0,1,0,4,1,10,3,4,3.25,1,no
16,2,2,1,0,1,2,1,32,0,16,16,1,no
10,1,2,2,0,3,2,1,20,0,10,10,1,no
7,1,1,1,0,1,2,1,14,0,7,7,1,no
9,0,2,2,0,2,2,1,18,0,9,9,1,no
3,0,0,0,0,0,1,1,3,0,3,3,0,no
20,3,5,2,1,1,3,1,36,1,21,12.333333,1,no
13,1,2,1,0,2,3,1,27,1,13,9.333333,1,no
3,0,0,0,0,0,2,1,6,0,3,3,1,no
23,0,3,2,1,3,6,1,29,6,15,5.833333,1,no
3,0,0,0,0,0,1,1,3,0,3,3,0,no
4,2,0,0,0,0,2,1,8,0,4,4,1,no
7,2,0,0,0,0,4,2,10,3,7,3.25,1,no
5,0,1,1,0,1,5,2,9,4,5,2.6,1,no
5,0,1,1,0,1,2,1,5,0,3,2.5,1,no
33,5,7,3,2,3,7,3,37,4,25,5.857143,1,yes
0,2,0,0,1,0,1,1,0,0,0,0,1,no
3,5,0,0,0,0,1,1,3,0,3,3,0,no
3,1,0,0,0,0,2,1,4,1,3,2.5,1,no
4,3,0,0,1,0,1,1,4,0,4,4,0,no
3,3,0,0,0,0,1,1,3,0,3,3,0,no
4,5,0,0,1,0,2,2,5,1,4,3,1,no
3,2,0,0,0,0,1,1,3,0,3,3,0,no
2,0,0,0,0,0,1,1,2,0,2,2,0,no
19,2,2,2,1,0,1,1,19,0,19,19,1,no
5,3,0,0,0,0,1,1,5,0,5,5,0,no
12,0,0,0,0,1,1,1,12,0,12,12,0,no
3,0,0,0,0,0,1,1,3,0,3,3,1,no
7,1,1,1,0,2,1,1,7,0,7,7,0,no
3,2,0,0,0,0,2,1,4,1,3,2.5,0,no
4,1,0,0,0,0,1,1,4,0,4,4,0,no
3,1,0,0,0,0,1,1,3,0,3,3,0,no
4,0,0,0,0,0,1,1,4,0,4,4,1,no
16,1,4,3,0,2,2,1,17,1,16,9,1,no
9,1,2,2,0,1,0,0,0,0,0,0,0,no
4,0,0,0,0,0,0,0,0,0,0,0,0,no
3,0,0,0,0,0,0,0,0,0,0,0,0,no
3,0,0,0,0,0,0,0,0,0,0,0,0,no
3,0,0,0,0,0,0,0,0,0,0,0,0,no
4,0,0,0,0,0,0,0,0,0,0,0,0,no
3,1,0,0,0,0,0,0,0,0,0,0,0,no
3,1,0,0,0,0,0,0,0,0,0,0,0,no
3,1,0,0,0,0,0,0,0,0,0,0,0,no
3,0,0,0,0,0,0,0,0,0,0,0,0,no
4,0,0,0,0,0,1,1,4,0,4,4,0,no
3,0,0,0,0,0,1,1,3,0,3,3,0,no
3,0,0,0,0,0,1,1,3,0,3,3,1,no
3,0,0,0,0,0,1,1,3,0,3,3,0,no
3,0,0,0,0,0,1,1,3,0,3,3,0,no
3,0,0,0,0,0,1,1,3,0,3,3,0,no
3,0,0,0,0,0,1,1,3,0,3,3,1,no
3,0,0,0,0,0,1,1,3,0,3,3,1,no
3,1,0,0,0,0,1,1,3,0,3,3,0,no
3,1,0,0,0,0,1,1,3,0,3,3,0,no
4,1,0,0,0,1,1,1,4,0,4,4,0,no
3,1,0,0,0,0,1,1,3,0,3,3,0,no
3,1,0,0,0,0,1,1,3,0,3,3,0,no
3,1,0,0,0,0,1,1,3,0,3,3,1,no
3,1,0,0,0,0,1,1,3,0,3,3,0,no
3,1,0,0,0,0,1,1,3,0,3,3,0,no
3,1,0,0,0,0,1,1,3,0,3,3,0,no
3,1,0,0,0,0,1,1,3,0,3,3,1,no
3,0,0,0,0,0,1,1,3,0,3,3,0,no
4,1,0,0,0,0,1,1,4,0,4,4,0,no
3,0,0,0,0,0,1,1,3,0,3,3,0,no
3,0,0,0,0,0,2,2,4,1,3,2.5,0,no
3,0,0,0,0,0,1,1,3,0,3,3,0,no
3,0,0,0,0,0,1,1,3,0,3,3,1,no
3,0,0,0,0,0,1,1,3,0,3,3,0,no
3,0,0,0,0,0,2,1,6,0,3,3,1,no
3,0,0,0,0,0,1,1,3,0,3,3,0,no
7,0,1,1,1,1,3,2,8,1,4,3,1,no
3,0,0,0,0,0,1,1,3,0,3,3,0,no
4,1,0,0,0,0,2,1,5,1,4,3,1,no
4,1,0,0,0,0,3,2,6,2,4,2.666667,1,no
4,1,0,0,0,0,2,1,5,1,4,3,1,no
4,1,0,0,0,0,1,1,4,0,4,4,1,no
4,1,0,0,0,0,1,1,4,0,4,4,0,no
4,1,0,0,0,0,2,1,8,0,4,4,1,no
4,1,0,0,0,0,2,1,5,1,4,3,1,no
4,1,0,0,0,0,2,1,5,1,4,3,1,no
4,1,0,0,0,0,3,1,6,2,4,2.666667,1,no
3,0,0,0,0,0,1,1,3,0,3,3,0,no
4,1,0,0,0,0,1,1,4,0,4,4,0,no
3,0,0,0,0,0,2,1,4,1,3,2.5,0,no
3,0,0,0,0,0,1,1,3,0,3,3,0,no
3,0,0,0,0,0,1,1,3,0,3,3,0,no
3,0,0,0,0,0,1,1,3,0,3,3,0,no
3,0,0,0,0,0,1,1,3,0,3,3,0,no
3,0,0,0,0,0,1,1,3,0,3,3,0,no
3,0,0,0,0,0,1,1,3,0,3,3,0,no
3,0,0,0,0,0,1,1,3,0,3,3,0,no
7,0,1,1,0,1,1,1,7,0,7,7,0,no
3,0,0,0,0,0,1,1,3,0,3,3,0,no
7,0,1,1,0,1,2,2,8,1,7,4.5,1,no
8,0,1,1,0,3,2,2,11,3,11,7,0,no
3,0,0,0,0,0,1,1,3,0,3,3,0,no
3,0,0,0,0,0,1,1,3,0,3,3,0,no
3,0,0,0,0,0,1,1,3,0,3,3,0,no
3,0,0,0,0,0,1,1,3,0,3,3,0,no
3,0,0,0,0,0,1,1,3,0,3,3,0,no
3,0,0,0,0,0,1,1,3,0,3,3,0,no
3,0,0,0,0,0,1,1,3,0,3,3,0,no
3,0,0,0,0,0,1,1,3,0,3,3,0,no
3,0,0,0,0,0,1,1,3,0,3,3,0,no
3,0,0,0,0,0,1,1,3,0,3,3,0,no
3,0,0,0,0,0,1,1,3,0,3,3,0,no
7,0,1,1,1,1,3,2,8,1,4,3,1,no
3,0,0,0,0,0,1,1,3,0,3,3,0,no
3,0,0,0,0,0,1,1,3,0,3,3,0,no
3,0,0,0,0,0,1,1,3,0,3,3,0,no
3,0,0,0,0,0,1,1,3,0,3,3,0,no
3,1,0,0,0,0,1,1,3,0,3,3,0,no
4,1,0,0,0,0,1,1,4,0,4,4,0,no
4,1,0,0,0,0,2,1,5,1,4,3,1,no
4,1,0,0,0,0,1,1,4,0,4,4,0,no
4,1,0,0,0,0,1,1,4,0,4,4,0,no
4,1,0,0,0,0,2,1,5,1,4,3,1,no
4,1,0,0,0,0,2,1,5,1,4,3,1,no
4,1,0,0,0,0,2,1,5,1,4,3,1,no
4,1,0,0,0,0,2,1,5,1,4,3,1,no
7,1,1,1,0,0,3,2,9,2,7,3.666667,1,no
4,1,0,0,0,0,1,1,4,0,4,4,0,no
4,1,0,0,0,0,1,1,4,0,4,4,0,no
4,1,0,0,0,0,2,1,5,1,4,3,1,no
4,1,0,0,0,0,2,1,5,1,4,3,1,no
4,1,0,0,0,0,1,1,4,0,4,4,0,no
4,1,0,0,0,0,1,1,4,0,4,4,0,no
4,1,0,0,0,0,1,1,4,0,4,4,1,no
3,1,0,0,0,0,1,1,3,0,3,3,0,no
4,1,0,0,0,0,1,1,4,0,4,4,1,no
4,1,0,0,0,0,1,1,4,0,4,4,1,no
4,1,0,0,0,0,1,1,4,0,4,4,0,no
4,1,0,0,0,0,2,1,5,1,4,3,1,no
4,1,0,0,0,0,1,1,4,0,4,4,0,no
4,1,0,0,0,0,2,1,5,1,4,3,1,no
4,1,0,0,0,0,3,1,6,2,4,2.666667,1,no
3,0,0,0,0,0,1,1,3,0,3,3,0,no
3,0,0,0,0,0,1,1,3,0,3,3,0,no
15,2,2,1,2,2,2,1,16,1,15,8.5,0,no
9,3,2,2,1,2,1,1,9,0,9,9,0,no
5,2,0,0,0,0,2,2,6,1,6,3.5,0,no
21,6,3,1,1,3,3,2,23,2,22,8.333333,1,no
2,0,0,0,1,0,1,1,2,0,2,2,1,no
0,1,0,0,0,0,1,1,0,0,0,0,0,no
0,1,0,0,0,0,1,1,0,0,0,0,0,no
6,1,1,1,1,0,5,3,10,4,6,2.8,1,no
15,2,3,2,1,2,1,1,15,0,15,15,0,yes
28,2,4,2,2,1,1,1,28,0,28,28,0,no
31,3,5,3,0,2,1,1,31,0,31,31,0,no
22,3,3,2,1,2,3,2,24,2,22,8.666667,1,no
23,5,4,2,2,1,1,1,23,0,23,23,0,no
16,2,3,1,1,3,1,1,16,0,16,16,0,no
11,4,2,2,1,0,2,2,12,1,11,6.5,0,no
12,3,2,2,0,1,1,1,12,0,12,12,0,no
4,2,0,0,0,0,3,3,6,2,4,2.666667,0,no
3,5,0,0,0,0,1,1,3,0,3,3,1,no
21,2,2,2,2,2,1,1,21,0,21,21,0,yes
10,1,1,1,0,2,1,1,10,0,10,10,1,no
5,1,0,0,0,1,1,1,5,0,5,5,1,no
23,0,2,1,0,2,1,1,23,0,23,23,0,yes
3,0,0,0,0,0,1,1,3,0,3,3,0,yes
13,0,2,1,0,1,1,1,13,0,13,13,0,yes
15,4,2,2,2,1,3,1,15,0,7,5,1,yes
12,2,2,2,0,4,1,1,12,0,12,12,0,no
3,0,0,0,0,0,1,1,3,0,3,3,0,no
8,3,1,1,0,0,1,1,8,0,8,8,0,no
3,0,0,0,0,0,1,1,3,0,3,3,0,no
3,0,0,0,0,0,1,1,3,0,3,3,0,no
2,0,0,0,0,0,1,1,2,0,2,2,0,no
6,2,0,0,0,0,2,2,8,2,8,5,0,no
19,5,1,1,0,2,1,1,19,0,19,19,1,no
24,6,2,1,2,1,1,1,24,0,24,24,1,no
8,0,1,1,0,0,1,1,8,0,8,8,1,no
50,2,4,1,4,4,2,2,52,2,52,27,0,yes
3,2,0,0,0,0,1,1,3,0,3,3,1,no
7,1,1,1,0,1,2,2,11,8,11,9.5,1,no
3,1,0,0,0,0,2,2,11,8,11,9.5,1,no
10,1,1,1,0,2,1,1,10,0,10,10,1,no
3,1,0,0,0,0,3,3,7,4,6,3.666667,1,no
3,0,0,0,0,0,1,1,3,0,3,3,0,no
3,2,0,0,0,0,1,1,3,0,3,3,1,no
3,1,0,0,0,0,1,1,3,0,3,3,1,no
19,3,2,1,2,1,1,1,19,0,19,19,1,no
9,4,1,1,1,1,1,1,9,0,9,9,1,no
14,2,1,1,0,2,1,1,14,0,14,14,1,no
4,2,0,0,0,1,1,1,4,0,4,4,1,no
45,4,4,1,4,4,4,2,47,2,44,12.25,1,yes
12,0,1,1,1,0,2,2,14,2,14,8,1,no
7,3,1,1,1,0,2,2,9,2,9,5.5,1,no
9,4,1,1,1,0,3,1,9,0,7,3,1,yes
3,1,0,0,0,0,1,1,3,0,3,3,1,no
32,6,3,1,2,7,1,1,32,0,32,32,1,no
19,3,2,1,1,3,1,1,19,0,19,19,1,no
3,0,0,0,1,0,1,1,3,0,3,3,1,no
16,2,2,1,0,4,1,1,16,0,16,16,0,yes
13,0,3,3,0,0,2,1,14,1,13,7.5,0,yes
6,0,1,1,0,0,1,1,6,0,6,6,0,yes
20,0,4,2,0,1,1,1,20,0,20,20,0,no
12,2,2,2,0,4,1,1,12,0,12,12,0,no
3,0,0,0,0,0,1,1,3,0,3,3,0,no
8,3,1,1,0,0,1,1,8,0,8,8,0,no
3,0,0,0,0,0,1,1,3,0,3,3,0,no
3,0,0,0,0,0,1,1,3,0,3,3,0,no
2,0,0,0,0,0,1,1,2,0,2,2,0,no
3,2,0,0,0,0,2,1,4,1,4,2.5,1,no
5,3,0,0,0,0,1,1,5,0,5,5,0,no
4,2,0,0,0,1,2,2,5,1,4,3,0,no
10,1,2,1,0,1,2,1,11,1,10,6,1,no
3,0,0,0,0,0,1,1,3,0,3,3,0,no
3,0,0,0,0,0,1,1,3,0,3,3,0,no
3,0,0,0,0,0,2,1,4,1,3,2.5,1,no
3,0,0,0,0,0,1,1,3,0,3,3,1,no
3,0,0,0,0,0,2,1,4,1,3,2.5,0,no
23,1,4,2,2,6,3,2,26,3,25,9.666667,1,no
15,2,2,2,0,3,2,2,16,1,15,8.5,1,no
5,0,0,0,0,1,3,2,9,4,8,4.333333,1,no
4,2,0,0,0,1,2,2,5,1,4,3,1,no
5,0,0,0,0,1,2,1,6,1,5,3.5,1,no
0,5,0,0,1,0,1,1,0,0,0,0,1,no
0,2,0,0,1,0,1,1,0,0,0,0,0,no
0,0,0,0,1,0,1,1,0,0,0,0,0,no
0,2,0,0,1,0,1,1,0,0,0,0,0,no
0,3,0,0,1,0,1,1,0,0,0,0,0,no
0,3,0,0,1,0,1,1,0,0,0,0,0,no
3,1,0,0,0,0,1,1,3,0,3,3,0,no
3,2,0,0,0,0,1,1,3,0,3,3,0,no
5,3,0,0,0,0,1,1,5,0,5,5,0,no
3,0,0,0,0,0,1,1,3,0,3,3,0,yes
3,0,0,0,0,0,1,1,3,0,3,3,0,no
3,0,0,0,0,0,1,1,3,0,3,3,0,yes
0,0,0,0,1,0,1,1,0,0,0,0,0,no
0,0,0,0,1,0,1,1,0,0,0,0,0,no
31,3,6,4,1,5,2,1,31,0,30,15.5,0,no
11,2,1,1,0,2,1,1,11,0,11,11,0,no
0,0,0,0,0,0,1,1,0,0,0,0,0,no
0,3,0,0,1,0,1,1,0,0,0,0,0,no
0,0,0,0,0,0,1,1,0,0,0,0,0,no
53,2,12,3,1,6,3,2,84,31,83,38.333333,0,no
0,0,0,0,0,0,1,1,0,0,0,0,0,no
0,0,0,0,0,0,1,1,0,0,0,0,0,no
0,0,0,0,0,0,1,1,0,0,0,0,0,no
0,0,0,0,0,0,1,1,0,0,0,0,0,no
0,0,0,0,0,0,1,1,0,0,0,0,0,no
0,0,0,0,0,0,1,1,0,0,0,0,0,no
0,0,0,0,0,0,1,1,0,0,0,0,0,no
0,1,0,0,0,0,1,1,0,0,0,0,0,no
0,2,0,0,0,0,1,1,0,0,0,0,0,no
0,1,0,0,0,0,1,1,0,0,0,0,0,no
0,0,0,0,0,0,1,1,0,0,0,0,0,no
0,1,0,0,0,0,1,1,0,0,0,0,0,no
12,1,2,2,1,2,1,1,12,0,12,12,0,no
3,0,0,0,0,0,1,1,3,0,3,3,0,no
16,3,2,1,1,2,1,1,16,0,16,16,0,no
3,1,1,0,0,0,1,1,3,0,3,3,0,no
3,1,1,0,0,0,1,1,3,0,3,3,0,no
3,0,0,0,0,0,1,1,3,0,3,3,0,no
3,0,0,0,0,0,1,1,3,0,3,3,0,no
5,4,2,0,0,1,1,1,5,0,5,5,0,no
3,0,0,0,0,0,1,1,3,0,3,3,0,no
3,1,0,0,0,0,1,1,3,0,3,3,0,no
30,6,3,1,2,5,1,1,30,0,30,30,0,no
18,3,2,1,1,2,1,1,18,0,18,18,0,no
3,0,0,0,1,0,1,1,3,0,3,3,0,no
14,3,1,1,2,0,2,2,14,0,9,7,0,no
8,6,0,0,0,0,1,1,8,0,8,8,0,no
17,5,2,1,0,1,1,1,17,0,17,17,0,no
8,0,1,1,0,0,2,2,9,1,8,5,0,no
48,2,5,1,3,3,1,1,48,0,48,48,0,no
43,6,6,2,2,6,1,1,43,0,43,43,0,no
10,1,1,1,0,2,1,1,10,0,10,10,0,no
3,0,0,0,0,0,1,1,3,0,3,3,0,no
28,2,3,1,3,3,1,1,28,0,28,28,0,no
18,3,2,2,0,2,1,1,18,0,18,18,0,no
26,3,3,3,1,4,1,1,26,0,26,26,0,no
17,3,3,3,1,1,1,1,17,0,17,17,0,no
21,3,3,1,3,1,1,1,21,0,21,21,0,no
12,3,2,2,0,1,1,1,12,0,12,12,0,no
11,3,2,1,0,0,1,1,11,0,11,11,0,no
33,3,5,2,2,5,1,1,33,0,33,33,0,no
8,3,1,1,1,0,1,1,8,0,8,8,0,no
3,0,0,0,0,0,1,1,3,0,3,3,0,no
43,4,5,1,3,3,1,1,43,0,43,43,0,no
7,3,1,1,1,0,1,1,7,0,7,7,0,no
13,3,2,1,0,0,1,1,13,0,13,13,0,no
14,0,1,1,0,1,1,1,14,0,14,14,0,no
13,0,2,1,0,0,1,1,13,0,13,13,0,yes
13,0,2,2,0,2,1,1,13,0,13,13,0,yes
8,3,1,1,0,0,1,1,8,0,8,8,0,no
8,0,2,2,0,0,1,1,8,0,8,8,0,no
6,2,0,0,1,0,1,1,6,0,6,6,0,no
3,0,0,0,0,0,1,1,3,0,3,3,0,no
3,0,0,0,0,0,1,1,3,0,3,3,0,no
15,2,1,1,1,1,5,3,18,3,9,4.2,0,no
44,0,11,4,4,4,2,1,45,1,44,23,0,no
15,0,4,2,1,1,2,1,16,1,15,8.5,0,no
16,0,3,1,0,0,4,3,18,2,13,5,0,no
16,0,3,1,0,0,3,2,17,1,13,6,0,no
8,1,1,1,0,1,1,1,8,0,8,8,0,no
26,0,5,3,0,3,4,1,28,2,25,7.5,0,no
53,3,10,4,3,9,4,1,55,2,43,14.25,0,no
7,2,0,0,0,4,1,1,7,0,7,7,0,no
3,2,0,0,0,0,1,1,3,0,3,3,0,no
3,1,0,0,0,0,2,1,4,1,3,2.5,0,no
15,0,3,2,1,0,2,2,16,1,15,8.5,0,no
31,1,8,5,4,6,2,1,31,0,19,15.5,0,no
41,2,9,5,3,5,4,1,44,3,42,11.75,0,no
22,1,4,2,0,1,2,2,23,1,22,12,0,no
15,0,2,1,0,1,1,1,15,0,15,15,0,no
16,1,4,2,1,1,2,1,17,1,16,9,0,no
7,0,1,1,0,1,1,1,7,0,7,7,0,no
2,1,0,0,0,0,3,1,7,2,5,3,0,no
5,1,1,1,0,0,3,1,7,2,5,3,0,no
5,1,1,1,0,0,3,1,7,2,5,3,0,no
4,2,0,0,0,0,1,1,4,0,4,4,0,no
3,0,0,0,0,0,1,1,3,0,3,3,0,no
3,0,0,0,0,0,1,1,3,0,3,3,0,no
3,1,0,0,0,0,1,1,3,0,3,3,0,no
21,1,6,3,0,2,2,1,21,0,17,10.5,1,no
3,0,0,0,0,0,1,1,3,0,3,3,0,no
4,1,0,0,0,0,1,1,4,0,4,4,0,no
3,0,0,0,0,0,1,1,3,0,3,3,0,no
2,0,0,0,0,0,1,1,2,0,2,2,0,no
8,1,1,1,0,1,1,1,8,0,8,8,0,no
3,1,0,0,0,0,1,1,3,0,3,3,0,no
3,1,0,0,0,0,1,1,3,0,3,3,0,no
3,0,0,0,0,0,1,1,3,0,3,3,0,no
3,0,0,0,0,0,1,1,3,0,3,3,0,no
2,2,0,0,0,0,1,1,2,0,2,2,0,no
3,0,0,0,0,0,1,1,3,0,3,3,0,no
5,3,0,0,0,0,1,1,5,0,5,5,0,no
13,3,1,1,0,1,1,1,13,0,13,13,0,no
2,0,0,0,0,0,1,1,2,0,2,2,0,no
3,0,0,0,0,0,1,1,3,0,3,3,0,no
6,1,1,1,0,0,1,1,6,0,6,6,0,no
13,1,1,1,0,6,1,1,13,0,13,13,0,no
8,0,1,1,0,1,1,1,8,0,8,8,0,no
5,2,0,0,1,0,1,1,5,0,5,5,0,no
23,3,6,2,0,2,1,1,23,0,23,23,0,no
2,0,0,0,0,0,1,1,2,0,2,2,0,no
3,1,0,0,0,0,1,1,3,0,3,3,0,no
8,3,0,0,0,0,1,1,8,0,8,8,0,no
8,4,0,0,0,0,1,1,8,0,8,8,0,no
3,0,0,0,0,0,1,1,3,0,3,3,0,no
3,2,0,0,0,0,1,1,3,0,3,3,0,no
3,3,0,0,0,0,1,1,3,0,3,3,0,no
3,7,0,0,0,0,1,1,3,0,3,3,0,no
39,6,10,3,1,3,1,1,39,0,39,39,0,no
9,8,0,0,0,1,1,1,9,0,9,9,0,no
21,3,4,2,0,1,1,1,21,0,21,21,0,no
13,5,1,1,0,1,1,1,13,0,13,13,0,no
11,2,2,1,0,1,1,1,11,0,11,11,0,no
13,4,1,1,0,1,1,1,13,0,13,13,0,no
12,4,3,1,0,2,1,1,12,0,12,12,0,no
3,0,0,0,0,0,1,1,4,0,4,4,0,no
3,0,0,0,0,0,1,1,4,0,4,4,0,no
8,0,1,1,0,1,1,1,4,0,4,4,0,no
8,0,1,1,0,1,1,1,4,0,4,4,0,no
4,0,0,0,0,1,1,1,4,0,4,4,0,no
3,1,0,0,0,0,1,1,3,0,3,3,0,no
3,1,0,0,0,0,1,1,3,0,3,3,0,no
21,1,6,3,0,2,1,1,21,0,21,21,0,no
7,1,1,1,2,1,1,1,7,0,7,7,0,no
3,0,0,0,0,0,1,1,3,0,3,3,0,no
4,0,0,0,0,0,1,1,4,0,4,4,0,no
3,0,0,0,0,0,1,1,3,0,3,3,0,no
4,2,0,0,0,0,1,1,4,0,4,4,0,no
4,2,0,0,0,0,1,1,4,0,4,4,0,no
4,3,0,0,0,0,1,1,4,0,4,4,0,no
3,1,0,0,0,0,1,1,3,0,3,3,0,no
3,2,0,0,0,0,1,1,3,0,3,3,0,no
21,3,9,1,0,0,1,1,21,0,21,21,0,no
3,0,0,0,0,0,1,1,3,0,3,3,0,no
3,1,0,0,0,0,1,1,3,0,3,3,0,no
3,2,0,0,0,0,1,1,3,0,3,3,0,no
4,2,0,0,1,0,1,1,4,0,4,4,0,no
3,1,0,0,0,0,1,1,3,0,3,3,0,no
3,0,0,0,0,0,1,1,3,0,3,3,0,no
3,0,0,0,0,0,1,1,3,0,3,3,0,no
3,1,0,0,0,0,1,1,3,0,3,3,0,no
3,2,0,0,0,0,1,1,3,0,3,3,0,no
3,1,0,0,0,0,1,1,3,0,3,3,0,no
3,2,0,0,0,0,1,1,3,0,3,3,0,no
3,1,0,0,0,0,1,1,3,0,3,3,0,no
3,2,0,0,0,0,1,1,3,0,3,3,0,no
3,1,0,0,0,0,1,1,3,0,3,3,0,no
3,2,0,0,0,0,1,1,3,0,3,3,0,no
3,1,0,0,0,0,1,1,3,0,3,3,0,no
3,2,0,0,0,0,1,1,3,0,3,3,0,no
3,1,0,0,0,0,1,1,3,0,3,3,0,no
3,2,0,0,0,0,1,1,3,0,3,3,0,no
3,1,0,0,0,0,1,1,3,0,3,3,0,no
3,2,0,0,0,0,1,1,3,0,3,3,0,no
0,0,0,0,1,0,1,1,0,0,0,0,0,no
0,1,0,0,1,0,1,1,0,0,0,0,0,no
0,1,0,0,1,0,1,1,0,0,0,0,0,no
0,0,0,0,1,0,1,1,0,0,0,0,0,no
0,0,0,0,1,0,1,1,0,0,0,0,0,no
0,2,0,0,1,0,1,1,0,0,0,0,0,no
0,3,0,0,1,0,1,1,0,0,0,0,0,no
0,3,0,0,1,0,1,1,0,0,0,0,0,no
0,0,0,0,1,0,1,1,0,0,0,0,0,no
0,1,0,0,1,0,1,1,0,0,0,0,0,no
3,3,0,0,0,0,1,1,3,0,3,3,0,no
2,0,0,0,0,0,1,1,2,0,2,2,0,no
3,0,0,0,0,0,1,1,3,0,3,3,0,no
3,1,0,0,0,0,1,1,3,0,3,3,0,no
3,1,0,0,0,0,1,1,3,0,3,3,0,no
3,2,0,0,0,0,1,1,3,0,3,3,0,no
3,1,0,0,0,0,1,1,3,0,3,3,0,no
7,1,1,1,2,0,1,1,7,0,7,7,0,no
0,7,0,0,1,0,1,1,0,0,0,0,0,no
0,8,0,0,1,0,1,1,0,0,0,0,0,no
0,0,0,0,1,0,1,1,0,0,0,0,0,no
0,3,0,0,1,0,1,1,0,0,0,0,0,no
0,4,0,0,1,0,1,1,0,0,0,0,0,no
0,0,0,0,1,0,1,1,0,0,0,0,0,no
0,2,0,0,1,0,1,1,0,0,0,0,0,no
0,3,0,0,1,0,1,1,0,0,0,0,0,no
0,5,0,0,1,0,1,1,0,0,0,0,0,no
0,4,0,0,1,0,1,1,0,0,0,0,0,no
4,2,0,0,0,0,1,1,4,0,4,4,0,no
3,0,0,0,0,0,1,1,3,0,3,3,0,no
3,0,0,0,0,0,1,1,3,0,3,3,0,no
3,1,0,0,0,0,1,1,3,0,3,3,0,no
3,1,0,0,0,0,1,1,3,0,3,3,0,no
30,2,4,2,4,9,1,1,30,0,30,30,0,no
3,1,0,0,0,0,1,1,3,0,3,3,0,no
10,3,2,1,0,0,1,1,10,0,10,10,0,no
6,0,1,1,0,0,1,1,6,0,6,6,0,no
5,3,0,0,0,0,1,1,5,0,5,5,0,no
7,0,1,1,0,0,1,1,7,0,7,7,0,no
3,0,0,0,0,0,1,1,3,0,3,3,0,no
3,1,0,0,0,0,1,1,3,0,3,3,0,no
4,0,0,0,0,0,1,1,4,0,4,4,0,no
17,1,4,2,0,4,1,1,17,0,17,17,0,no
3,1,0,0,0,0,1,1,3,0,3,3,0,no
3,0,0,0,0,0,1,1,3,0,3,3,0,no
3,0,0,0,0,0,1,1,3,0,3,3,0,no
8,0,1,1,0,3,1,1,8,0,8,8,0,no
10,1,2,2,0,1,1,1,10,0,10,10,0,no
11,1,2,1,0,3,1,1,11,0,11,11,0,no
4,2,0,0,0,0,1,1,4,0,4,4,0,no
19,0,3,2,0,4,2,2,20,1,19,10.5,0,no
5,0,1,1,0,1,1,1,5,0,5,5,0,no
5,1,1,1,0,1,1,1,5,0,5,5,0,no
7,1,1,1,0,2,1,1,7,0,7,7,0,no
3,0,0,0,0,0,1,1,3,0,3,3,0,no
3,1,0,0,0,0,1,1,3,0,3,3,0,no
3,2,0,0,0,0,1,1,3,0,3,3,0,no
8,6,1,0,0,0,1,1,8,0,8,8,0,no
3,0,0,0,0,0,1,1,3,0,3,3,0,no
3,0,0,0,0,0,1,1,3,0,3,3,0,no
3,0,0,0,0,0,1,1,3,0,3,3,0,no
3,0,0,0,0,0,1,1,3,0,3,3,0,no
3,0,0,0,0,0,1,1,3,0,3,3,0,no
3,0,0,0,0,0,1,1,3,0,3,3,0,no
2,0,0,0,1,0,1,1,2,0,2,2,0,no
8,1,0,0,0,0,1,1,8,0,8,8,0,no
12,1,3,1,0,2,1,1,12,0,12,12,0,no
3,0,0,0,0,0,1,1,3,0,3,3,0,no
11,0,3,2,0,3,1,1,11,0,11,11,0,no
25,1,6,3,0,1,2,2,25,0,21,12.5,1,no
7,3,0,0,0,0,2,2,7,0,5,3.5,1,no
22,8,2,1,0,1,3,2,22,0,13,7.333333,1,no
11,0,1,2,0,1,1,1,6,0,6,6,1,no
20,1,4,2,1,4,2,2,21,1,20,11,1,yes
19,1,3,3,0,2,4,2,11,3,8,3.5,1,yes
30,1,3,1,0,10,3,2,3,3,2,2,0,no
22,5,2,1,0,1,3,2,22,0,13,7.333333,1,no
22,6,2,1,0,1,3,2,22,0,13,7.333333,1,no
12,2,1,1,0,0,3,2,7,2,5,3,1,yes
12,2,1,1,0,0,3,2,7,2,5,3,1,yes
12,2,1,1,0,0,3,2,7,2,5,3,1,yes
3,0,0,0,0,0,1,1,3,0,3,3,1,no
3,0,0,0,0,0,1,1,3,0,3,3,1,no
3,0,0,0,0,0,1,1,3,0,3,3,1,no
5,0,1,1,0,1,2,2,6,1,5,3.5,1,no
7,5,1,1,0,1,0,0,0,0,0,0,0,no
4,0,0,0,0,0,0,0,0,0,0,0,0,no
4,0,0,0,0,0,0,0,0,0,0,0,0,no
3,0,0,0,0,0,0,0,0,0,0,0,0,no
5,1,1,1,0,0,0,0,0,0,0,0,0,no
7,2,0,0,0,2,1,1,7,0,7,7,0,no
7,0,1,1,0,0,1,1,7,0,7,7,0,no
3,0,0,0,0,0,1,1,3,0,3,3,0,no
7,0,0,0,0,0,1,1,7,0,7,7,0,no
5,0,0,0,0,0,1,1,5,0,5,5,0,no
11,0,0,0,1,2,1,1,11,0,11,11,0,no
6,0,0,0,0,0,1,1,6,0,6,6,0,no
14,0,1,1,0,1,2,2,15,1,14,8,0,no
3,0,0,0,0,0,1,1,3,0,3,3,0,no
7,1,1,1,0,1,1,1,7,0,7,7,0,no
4,0,0,0,0,0,1,1,4,0,4,4,0,no
7,1,1,1,0,1,1,1,7,0,7,7,0,no
3,0,1,0,0,0,1,1,3,0,3,3,0,no
4,6,0,0,0,0,1,1,4,0,4,4,0,no
3,0,0,0,0,0,1,1,3,0,3,3,0,no
3,0,0,0,0,0,1,1,3,0,3,3,0,no
3,0,0,0,0,0,1,1,3,0,3,3,0,no
3,4,0,0,0,0,1,1,3,0,3,3,0,no
5,3,0,0,0,0,1,1,5,0,5,5,0,no
12,1,1,1,0,3,1,1,12,0,12,12,0,no
3,0,0,0,0,0,1,1,3,0,3,3,0,no
3,0,0,0,0,0,1,1,3,0,3,3,0,no
3,0,0,0,0,0,1,1,3,0,3,3,0,no
7,0,1,1,0,0,1,1,7,0,7,7,0,no
3,4,0,0,0,0,1,1,3,0,3,3,0,no
3,5,0,0,0,0,1,1,3,0,3,3,0,no
3,0,0,0,0,0,1,1,3,0,3,3,0,no
4,4,0,0,0,0,1,1,4,0,4,4,0,no
4,5,0,0,0,0,1,1,4,0,4,4,0,no
3,0,0,0,0,0,1,1,3,0,3,3,0,no
3,0,0,0,0,0,1,1,3,0,3,3,0,no
3,5,0,0,0,0,1,1,3,0,3,3,0,no
8,6,0,0,0,0,1,1,8,0,8,8,0,no
3,0,0,0,0,0,1,1,3,0,3,3,0,no
3,0,0,0,0,0,1,1,3,0,3,3,0,no
3,0,0,0,0,0,1,1,3,0,3,3,0,no
4,0,0,0,0,0,1,1,4,0,4,4,0,no
3,0,0,0,0,0,1,1,3,0,3,3,0,no
3,0,0,0,0,0,1,1,3,0,3,3,0,no
3,0,0,0,0,0,1,1,3,0,3,3,0,no
3,0,0,0,0,0,1,1,3,0,3,3,0,no
7,5,0,0,0,0,1,1,7,0,7,7,0,no
3,0,0,0,0,0,1,1,3,0,3,3,0,no
3,0,0,0,0,0,1,1,3,0,3,3,0,no
3,0,0,0,0,0,1,1,3,0,3,3,0,no
3,0,0,0,0,0,1,1,3,0,3,3,0,no
3,0,0,0,0,0,1,1,3,0,3,3,0,no
3,0,0,0,0,0,2,2,4,1,3,2.5,0,no
9,1,1,1,0,0,1,1,9,0,9,9,0,no
3,0,0,0,0,0,1,1,3,0,3,3,0,no
3,0,0,0,0,0,1,1,3,0,3,3,0,no
7,0,1,1,0,0,1,1,7,0,7,7,0,no
3,0,0,0,0,0,1,1,3,0,3,3,0,no
3,0,0,0,0,0,1,1,3,0,3,3,0,no
3,0,0,0,0,0,1,1,3,0,3,3,0,no
3,0,0,0,0,0,1,1,3,0,3,3,0,no
12,2,2,1,5,0,1,1,12,0,12,12,0,no
38,1,4,2,0,6,1,1,38,0,38,38,0,no
3,1,0,0,0,0,1,1,3,0,3,3,0,no
35,1,6,3,0,6,1,1,35,0,35,35,0,no
4,0,0,0,0,1,1,1,4,0,4,4,0,no
10,0,1,1,0,0,1,1,10,0,10,10,0,no
3,0,0,0,0,0,1,1,3,0,3,3,0,no
12,0,2,1,0,0,1,1,12,0,12,12,0,no
11,0,1,1,0,0,1,1,11,0,11,11,0,no
3,0,0,0,0,0,1,1,3,0,3,3,0,no
11,0,2,2,0,0,1,1,11,0,11,11,0,no
4,0,0,0,0,0,1,1,4,0,4,4,0,no
4,1,0,0,0,0,1,1,4,0,4,4,0,no
12,0,3,2,1,0,1,1,12,0,12,12,0,yes
5,2,0,0,0,0,1,1,5,0,5,5,0,no
3,0,0,0,0,0,2,1,4,1,3,2.5,0,no
3,0,0,0,0,0,1,1,3,0,3,3,0,no
3,0,0,0,0,0,1,1,3,0,3,3,0,no
3,0,0,0,0,0,1,1,3,0,3,3,0,no
3,0,0,0,0,0,2,1,4,1,3,2.5,0,no
7,0,1,1,0,0,2,2,8,1,7,4.5,1,no
3,0,0,0,0,0,1,1,3,0,3,3,0,no
0,0,0,0,1,0,1,1,0,0,0,0,0,no
0,0,0,0,1,0,1,1,0,0,0,0,0,no
0,0,0,0,1,0,1,1,0,0,0,0,0,no
0,0,0,0,1,0,1,1,0,0,0,0,0,no
0,0,0,0,1,0,1,1,0,0,0,0,0,no
0,2,0,0,0,0,0,0,0,0,0,0,0,no
10,5,1,1,0,0,1,1,10,0,10,10,1,no
7,3,1,1,1,0,2,2,8,1,7,4.5,1,no
9,0,2,2,0,0,1,1,9,0,9,9,1,no
0,2,0,0,1,0,1,1,0,0,0,0,1,no
0,5,0,0,0,0,0,0,0,0,0,0,0,no
0,5,0,0,0,0,0,0,0,0,0,0,0,no
2,0,0,0,0,0,1,1,2,0,2,2,1,no
3,0,0,0,0,0,1,1,3,0,3,3,1,no
2,1,0,0,1,0,1,1,2,0,2,2,1,no
18,1,0,0,21,0,7,2,20,2,8,3.142857,1,no
3,1,0,0,0,0,1,1,3,0,3,3,0,no
2,1,0,0,1,0,1,1,2,0,2,2,0,no
13,0,2,2,1,3,1,1,13,0,13,13,0,no
10,0,1,1,1,2,1,1,10,0,10,10,0,no
3,0,0,0,0,0,1,1,3,0,3,3,0,no
3,0,0,0,0,0,1,1,3,0,3,3,0,no
3,0,0,0,2,0,1,1,3,0,3,3,0,no
12,0,2,1,2,1,1,1,12,0,12,12,0,no
3,0,0,0,1,0,1,1,3,0,3,3,0,no
3,0,0,0,0,0,1,1,3,0,3,3,0,no
3,0,0,0,1,0,1,1,3,0,3,3,0,no
7,0,1,1,2,1,1,1,7,0,7,7,0,no
3,0,0,0,0,0,1,1,3,0,3,3,0,no
3,1,0,0,1,0,1,1,3,0,3,3,0,no
3,0,0,0,0,0,1,1,3,0,3,3,0,no
4,1,0,0,2,1,1,1,4,0,4,4,0,no
8,1,1,1,1,1,1,1,8,0,8,8,0,no
8,2,1,1,1,1,1,1,8,0,8,8,0,no
3,1,0,0,1,0,1,1,3,0,3,3,0,no
3,2,0,0,1,0,1,1,3,0,3,3,0,no
3,1,0,0,1,0,1,1,3,0,3,3,0,no
3,2,0,0,1,0,1,1,3,0,3,3,0,no
3,1,0,0,1,0,1,1,3,0,3,3,0,no
3,2,0,0,1,0,1,1,3,0,3,3,0,no
3,1,0,0,1,0,1,1,3,0,3,3,0,no
3,2,0,0,1,0,1,1,3,0,3,3,0,no
3,0,0,0,0,0,1,1,3,0,3,3,0,no
3,0,0,0,2,0,1,1,3,0,3,3,0,no
7,1,1,1,1,0,1,1,7,0,7,7,0,no
3,0,0,0,0,0,1,1,3,0,3,3,0,no
4,1,0,0,0,0,1,1,4,0,4,4,0,no
7,0,1,1,2,1,1,1,7,0,7,7,0,no
7,0,1,1,2,1,1,1,7,0,7,7,0,no
12,0,1,1,6,3,1,1,12,0,12,12,0,no
6,0,0,0,1,0,1,1,6,0,6,6,0,no
6,0,0,0,1,0,1,1,6,0,6,6,0,no
3,0,0,0,1,0,1,1,3,0,3,3,0,no
3,0,0,0,0,0,1,1,3,0,3,3,0,no
10,0,1,1,1,2,1,1,10,0,10,10,0,no
3,0,0,0,2,0,1,1,3,0,3,3,0,no
3,0,0,0,2,0,1,1,3,0,3,3,0,no
3,0,0,0,1,0,1,1,3,0,3,3,0,no
3,0,0,0,1,0,1,1,3,0,3,3,0,no
3,0,0,0,1,0,1,1,3,0,3,3,0,no
3,0,0,0,1,0,1,1,3,0,3,3,0,no
4,0,1,1,1,0,1,1,4,0,4,4,0,no
27,2,5,3,1,2,1,1,27,0,27,27,0,no
8,1,1,1,2,0,1,1,8,0,8,8,0,no
9,1,2,1,3,0,1,1,9,0,9,9,0,no
9,1,1,1,0,0,1,1,9,0,9,9,0,no
5,1,0,0,0,0,1,1,5,0,5,5,0,no
0,0,0,0,0,0,1,1,0,0,0,0,0,no
0,0,0,0,0,0,1,1,0,0,0,0,0,no
3,1,0,0,0,0,1,1,3,0,3,3,0,no
2,1,0,0,1,0,1,1,2,0,2,2,0,no
13,0,2,2,1,3,1,1,13,0,13,13,0,no
10,0,1,1,1,2,1,1,10,0,10,10,0,no
3,0,0,0,0,0,1,1,3,0,3,3,0,no
3,0,0,0,0,0,1,1,3,0,3,3,0,no
3,0,0,0,2,0,1,1,3,0,3,3,0,no
13,0,2,2,1,3,1,1,13,0,13,13,0,no
10,0,1,1,1,2,1,1,10,0,10,10,0,no
13,0,2,2,1,3,1,1,13,0,13,13,0,no
10,0,1,1,1,2,1,1,10,0,10,10,0,no
13,0,2,2,1,3,1,1,13,0,13,13,0,no
10,0,1,1,1,2,1,1,10,0,10,10,0,no
21,0,5,1,5,1,1,1,21,0,21,21,0,no
3,0,0,0,1,0,1,1,3,0,3,3,0,no
3,0,0,0,1,0,1,1,3,0,3,3,0,no
3,0,0,0,1,0,1,1,3,0,3,3,0,no
3,0,0,0,1,0,1,1,3,0,3,3,0,no
6,0,0,0,0,0,1,1,6,0,6,6,0,no
3,0,0,0,1,0,1,1,3,0,3,3,0,no
19,0,4,1,2,1,1,1,19,0,19,19,0,no
3,0,0,0,0,0,1,1,3,0,3,3,0,no
3,1,0,0,1,0,1,1,3,0,3,3,0,no
3,0,0,0,0,0,1,1,3,0,3,3,0,no
4,1,0,0,2,1,1,1,4,0,4,4,0,no
8,1,1,1,1,1,1,1,8,0,8,8,0,no
8,2,1,1,1,1,1,1,8,0,8,8,0,no
3,1,0,0,1,0,1,1,3,0,3,3,0,no
3,2,0,0,1,0,1,1,3,0,3,3,0,no
3,1,0,0,1,0,1,1,3,0,3,3,0,no
3,2,0,0,1,0,1,1,3,0,3,3,0,no
3,1,0,0,1,0,1,1,3,0,3,3,0,no
3,2,0,0,1,0,1,1,3,0,3,3,0,no
3,1,0,0,1,0,1,1,3,0,3,3,0,no
3,2,0,0,1,0,1,1,3,0,3,3,0,no
3,0,0,0,0,0,1,1,3,0,3,3,0,no
3,0,0,0,2,0,1,1,3,0,3,3,0,no
16,1,4,1,4,0,1,1,16,0,16,16,0,no
3,0,0,0,0,0,1,1,3,0,3,3,0,no
4,1,0,0,0,0,1,1,4,0,4,4,0,no
7,0,1,1,2,1,1,1,7,0,7,7,0,no
7,0,1,1,2,1,1,1,7,0,7,7,0,no
24,0,4,1,9,3,1,1,24,0,24,24,0,no
12,0,0,0,4,0,1,1,12,0,12,12,0,no
6,0,0,0,1,0,1,1,6,0,6,6,0,no
6,0,0,0,1,0,1,1,6,0,6,6,0,no
6,0,0,0,1,0,1,1,6,0,6,6,0,no
6,0,0,0,1,0,1,1,6,0,6,6,0,no
3,0,0,0,1,0,1,1,3,0,3,3,0,no
3,0,0,0,0,0,1,1,3,0,3,3,0,no
10,0,1,1,1,2,1,1,10,0,10,10,0,no
3,0,0,0,2,0,1,1,3,0,3,3,0,no
3,0,0,0,2,0,1,1,3,0,3,3,0,no
3,0,0,0,1,0,1,1,3,0,3,3,0,no
10,0,1,1,1,2,1,1,10,0,10,10,0,no
10,0,1,1,1,2,1,1,10,0,10,10,0,no
10,0,1,1,1,2,1,1,10,0,10,10,0,no
3,0,0,0,1,0,1,1,3,0,3,3,0,no
3,0,0,0,1,0,1,1,3,0,3,3,0,no
3,0,0,0,1,0,1,1,3,0,3,3,0,no
3,0,0,0,1,0,1,1,3,0,3,3,0,no
3,0,0,0,1,0,1,1,3,0,3,3,0,no
12,0,3,1,2,0,1,1,12,0,12,12,0,no
4,0,1,1,1,0,1,1,4,0,4,4,0,no
45,2,8,3,1,2,1,1,45,0,45,45,0,no
8,1,1,1,2,0,1,1,8,0,8,8,0,no
18,1,5,1,3,0,1,1,18,0,18,18,0,no
9,1,1,1,0,0,1,1,9,0,9,9,0,no
5,1,0,0,0,0,1,1,5,0,5,5,0,no
9,1,1,1,0,0,1,1,9,0,9,9,0,no
5,1,0,0,0,0,1,1,5,0,5,5,0,no
9,1,1,1,0,0,1,1,9,0,9,9,0,no
5,1,0,0,0,0,1,1,5,0,5,5,0,no
9,1,1,1,0,0,1,1,9,0,9,9,0,no
5,1,0,0,0,0,1,1,5,0,5,5,0,no
0,0,0,0,0,0,1,1,0,0,0,0,0,no
0,0,0,0,0,0,1,1,0,0,0,0,0,no
0,0,0,0,0,0,1,1,0,0,0,0,0,no
0,0,0,0,0,0,1,1,0,0,0,0,0,no
0,0,0,0,0,0,1,1,0,0,0,0,0,no
0,0,0,0,0,0,1,1,0,0,0,0,0,no
0,0,0,0,0,0,1,1,0,0,0,0,0,no
0,0,0,0,0,0,1,1,0,0,0,0,0,no
3,1,0,0,0,0,1,1,3,0,3,3,1,no
2,1,0,0,1,0,1,1,2,0,2,2,1,no
3,0,0,0,0,0,1,1,3,0,3,3,0,no
3,0,0,0,0,0,1,1,3,0,3,3,1,no
3,0,0,0,0,0,1,1,3,0,3,3,1,no
3,0,0,0,2,0,1,1,3,0,3,3,1,no
3,0,0,0,1,0,1,1,3,0,3,3,0,no
3,0,0,0,0,0,1,1,3,0,3,3,1,no
3,0,0,0,0,0,1,1,3,0,3,3,1,no
3,0,0,0,0,0,1,1,3,0,3,3,1,no
3,0,0,0,0,0,1,1,3,0,3,3,0,no
3,0,0,0,0,0,1,1,3,0,3,3,1,no
3,1,0,0,1,0,1,1,3,0,3,3,1,no
3,0,0,0,0,0,1,1,3,0,3,3,1,no
3,0,0,0,1,0,1,1,3,0,3,3,1,no
3,1,0,0,1,0,1,1,3,0,3,3,1,no
3,0,0,0,1,0,1,1,3,0,3,3,1,no
36,0,10,1,9,2,3,2,36,0,27,12,1,no
3,0,0,0,1,0,1,1,3,0,3,3,1,no
3,0,0,0,1,0,1,1,3,0,3,3,0,no
3,0,0,0,1,0,1,1,3,0,3,3,0,no
3,0,0,0,1,0,1,1,3,0,3,3,1,no
3,0,0,0,1,0,1,1,3,0,3,3,1,no
3,0,0,0,1,0,1,1,3,0,3,3,1,no
3,0,0,0,1,0,1,1,3,0,3,3,0,no
3,0,0,0,1,0,1,1,3,0,3,3,1,no
3,0,0,0,1,0,1,1,3,0,3,3,1,no
11,0,0,0,2,0,3,2,11,0,8,3.666667,1,no
3,0,0,0,1,0,1,1,3,0,3,3,1,no
29,0,7,2,2,2,1,1,29,0,29,29,1,no
3,0,0,0,0,0,1,1,3,0,3,3,1,no
3,1,0,0,1,0,1,1,3,0,3,3,1,no
3,0,0,0,0,0,1,1,3,0,3,3,1,no
4,1,0,0,2,1,1,1,4,0,4,4,1,no
8,1,1,1,1,1,1,1,8,0,8,8,1,no
8,2,1,1,1,1,1,1,8,0,8,8,1,no
3,1,0,0,1,0,1,1,3,0,3,3,1,no
3,2,0,0,1,0,1,1,3,0,3,3,1,no
3,1,0,0,1,0,1,1,3,0,3,3,1,no
3,2,0,0,1,0,1,1,3,0,3,3,1,no
3,1,0,0,1,0,1,1,3,0,3,3,1,no
3,2,0,0,1,0,1,1,3,0,3,3,1,no
3,1,0,0,1,0,1,1,3,0,3,3,1,no
3,2,0,0,1,0,1,1,3,0,3,3,1,no
3,0,0,0,0,0,1,1,3,0,3,3,1,no
3,0,0,0,2,0,1,1,3,0,3,3,1,no
31,1,9,1,8,1,3,2,31,0,22,10.333333,1,no
3,0,0,0,0,0,1,1,3,0,3,3,1,no
4,1,0,0,0,0,1,1,4,0,4,4,1,no
10,1,1,1,2,0,1,1,10,0,10,10,1,no
13,2,2,2,1,0,1,1,13,0,13,13,1,no
10,2,1,1,1,0,1,1,10,0,10,10,1,no
13,1,2,2,1,0,1,1,13,0,13,13,1,no
10,1,1,1,1,0,1,1,10,0,10,10,1,no
3,0,0,0,2,0,1,1,3,0,3,3,1,no
3,1,0,0,2,0,1,1,3,0,3,3,1,no
7,0,1,1,2,1,1,1,7,0,7,7,1,no
7,0,1,1,2,1,1,1,7,0,7,7,1,no
49,0,10,2,15,3,3,2,49,0,37,16.333333,1,no
26,0,1,1,11,0,3,2,26,0,20,8.666667,1,no
6,0,0,0,1,0,1,1,6,0,6,6,0,no
6,0,0,0,2,0,1,1,6,0,6,6,0,no
6,0,0,0,1,0,1,1,6,0,6,6,1,no
6,0,0,0,1,0,1,1,6,0,6,6,1,no
6,0,0,0,1,0,1,1,6,0,6,6,1,no
6,0,0,0,1,0,1,1,6,0,6,6,0,no
6,0,0,0,1,0,1,1,6,0,6,6,1,no
10,0,1,1,1,0,1,1,10,0,10,10,1,no
6,0,0,0,2,0,1,1,6,0,6,6,1,no
3,0,0,0,1,0,1,1,3,0,3,3,1,no
3,0,0,0,0,0,1,1,3,0,3,3,1,no
6,0,1,1,2,0,1,1,6,0,6,6,1,no
3,0,0,0,0,0,1,1,3,0,3,3,0,no
3,0,0,0,2,0,1,1,3,0,3,3,1,no
3,0,0,0,2,0,1,1,3,0,3,3,1,no
3,0,0,0,1,0,1,1,3,0,3,3,1,no
3,0,0,0,1,0,1,1,3,0,3,3,0,no
3,0,0,0,0,0,1,1,3,0,3,3,1,no
3,0,0,0,0,0,1,1,3,0,3,3,1,no
3,0,0,0,0,0,1,1,3,0,3,3,1,no
3,0,0,0,0,0,1,1,3,0,3,3,0,no
3,0,0,0,0,0,1,1,3,0,3,3,1,no
7,1,1,1,1,0,1,1,7,0,7,7,1,no
3,1,0,0,1,0,1,1,3,0,3,3,1,no
3,0,0,0,1,0,1,1,3,0,3,3,1,no
7,0,1,1,0,0,1,1,7,0,7,7,1,no
7,0,1,1,7,0,1,1,7,0,7,7,1,no
7,0,1,1,1,0,1,1,7,0,7,7,1,no
7,1,1,1,1,0,1,1,7,0,7,7,1,no
7,0,1,1,1,0,1,1,7,0,7,7,1,no
3,0,0,0,1,0,1,1,3,0,3,3,1,no
3,0,0,0,1,0,1,1,3,0,3,3,0,no
3,0,0,0,1,0,1,1,3,0,3,3,0,no
3,0,0,0,1,0,1,1,3,0,3,3,1,no
3,0,0,0,1,0,1,1,3,0,3,3,1,no
3,0,0,0,1,0,1,1,3,0,3,3,1,no
3,0,0,0,1,0,1,1,3,0,3,3,0,no
3,0,0,0,1,0,1,1,3,0,3,3,1,no
3,0,0,0,1,0,1,1,3,0,3,3,1,no
3,0,0,0,1,0,1,1,3,0,3,3,1,no
20,0,6,2,1,1,1,1,20,0,20,20,1,no
5,0,1,1,0,0,1,1,5,0,5,5,1,no
88,2,15,3,7,7,3,2,88,0,64,29.333333,1,no
8,1,1,1,2,0,1,1,8,0,8,8,1,no
54,1,15,3,5,0,3,2,54,0,45,18,1,no
10,1,1,1,0,0,1,1,10,0,10,10,1,no
6,1,0,0,0,0,1,1,6,0,6,6,0,no
9,1,1,1,1,0,1,1,9,0,9,9,0,no
6,1,0,0,0,0,1,1,6,0,6,6,1,no
6,1,0,0,0,0,1,1,6,0,6,6,1,no
6,1,0,0,0,0,1,1,6,0,6,6,1,no
9,1,1,1,0,0,1,1,9,0,9,9,0,no
6,1,0,0,0,0,1,1,6,0,6,6,1,no
13,2,2,2,1,0,1,1,13,0,13,13,1,no
10,2,1,1,1,0,1,1,10,0,10,10,1,no
9,1,1,1,1,0,1,1,9,0,9,9,1,no
4,2,0,0,1,0,1,1,4,0,4,4,0,no
3,0,0,0,1,0,1,1,3,0,3,3,0,no
3,0,0,0,0,0,1,1,3,0,3,3,0,no
3,0,0,0,0,0,1,1,3,0,3,3,0,no
3,0,0,0,0,0,1,1,3,0,3,3,0,no
3,0,0,0,0,0,1,1,3,0,3,3,0,no
6,1,1,1,1,0,1,1,6,0,6,6,0,no
10,1,3,1,0,0,1,1,10,0,10,10,0,no
3,1,0,0,0,0,1,1,3,0,3,3,0,no
3,1,0,0,0,0,1,1,3,0,3,3,1,no
2,1,0,0,1,0,1,1,2,0,2,2,1,no
3,0,0,0,0,0,1,1,3,0,3,3,1,no
3,0,0,0,0,0,1,1,3,0,3,3,1,no
3,0,0,0,2,0,1,1,3,0,3,3,1,no
3,1,0,0,0,0,1,1,3,0,3,3,1,no
3,0,0,0,0,0,1,1,3,0,3,3,1,no
3,0,0,0,0,0,1,1,3,0,3,3,1,no
3,0,0,0,0,0,1,1,3,0,3,3,1,no
20,0,3,1,2,3,1,1,20,0,20,20,1,no
3,0,0,0,1,0,1,1,3,0,3,3,1,no
4,0,0,0,0,0,1,1,4,0,4,4,1,no
3,0,0,0,1,0,1,1,3,0,3,3,1,no
11,0,2,1,2,1,1,1,11,0,11,11,1,no
3,0,0,0,0,0,1,1,3,0,3,3,1,no
3,1,0,0,1,0,1,1,3,0,3,3,1,no
3,0,0,0,0,0,1,1,3,0,3,3,1,no
4,1,0,0,2,1,1,1,4,0,4,4,1,no
8,1,1,1,1,1,1,1,8,0,8,8,1,no
8,2,1,1,1,1,1,1,8,0,8,8,1,no
3,1,0,0,1,0,1,1,3,0,3,3,1,no
3,2,0,0,1,0,1,1,3,0,3,3,1,no
3,1,0,0,1,0,1,1,3,0,3,3,1,no
3,2,0,0,1,0,1,1,3,0,3,3,1,no
3,1,0,0,1,0,1,1,3,0,3,3,1,no
3,2,0,0,1,0,1,1,3,0,3,3,1,no
3,1,0,0,1,0,1,1,3,0,3,3,1,no
3,2,0,0,1,0,1,1,3,0,3,3,1,no
3,0,0,0,0,0,1,1,3,0,3,3,1,no
3,0,0,0,2,0,1,1,3,0,3,3,1,no
10,1,2,1,1,1,1,1,10,0,10,10,1,no
3,0,0,0,0,0,1,1,3,0,3,3,1,no
4,1,0,0,0,0,1,1,4,0,4,4,1,no
6,1,0,0,1,0,1,1,6,0,6,6,1,no
9,1,1,1,0,0,1,1,9,0,9,9,1,no
5,1,0,0,0,0,1,1,5,0,5,5,1,no
7,0,1,1,2,1,1,1,7,0,7,7,1,no
7,0,1,1,2,1,1,1,7,0,7,7,1,no
17,0,2,1,8,3,1,1,17,0,17,17,1,no
8,0,0,0,2,0,1,1,8,0,8,8,1,no
6,0,0,0,1,0,1,1,6,0,6,6,1,no
6,0,0,0,1,0,1,1,6,0,6,6,1,no
3,0,0,0,1,0,1,1,3,0,3,3,1,no
3,0,0,0,0,0,1,1,3,0,3,3,1,no
6,0,1,1,1,0,1,1,6,0,6,6,1,no
3,0,0,0,2,0,1,1,3,0,3,3,1,no
3,0,0,0,2,0,1,1,3,0,3,3,1,no
3,0,0,0,1,0,1,1,3,0,3,3,1,no
3,1,0,0,0,0,1,1,3,0,3,3,1,no
3,0,0,0,0,0,1,1,3,0,3,3,1,no
3,0,0,0,0,0,1,1,3,0,3,3,1,no
3,0,0,0,0,0,1,1,3,0,3,3,1,no
3,0,0,0,1,0,1,1,3,0,3,3,1,no
3,0,0,0,1,0,1,1,3,0,3,3,1,no
6,0,1,1,2,0,1,1,6,0,6,6,1,no
4,0,1,1,1,0,1,1,4,0,4,4,1,no
33,2,6,3,1,2,1,1,33,0,33,33,1,no
8,1,1,1,2,0,1,1,8,0,8,8,1,no
19,1,4,2,4,0,1,1,19,0,19,19,1,no
9,2,1,1,0,0,1,1,9,0,9,9,1,no
6,1,0,0,0,0,1,1,6,0,6,6,1,no
0,1,0,0,0,0,1,1,0,0,0,0,1,no
0,0,0,0,0,0,1,1,0,0,0,0,1,no
0,0,0,0,0,0,1,1,0,0,0,0,1,no
0,0,0,0,0,0,1,1,0,0,0,0,1,no
0,0,0,0,0,0,1,1,0,0,0,0,1,no
4,2,0,0,1,0,1,1,4,0,4,4,1,no
3,0,0,0,1,0,1,1,3,0,3,3,1,no
3,0,0,0,0,0,1,1,3,0,3,3,1,no
3,0,0,0,0,0,1,1,3,0,3,3,1,no
3,0,0,0,0,0,1,1,3,0,3,3,1,no
3,0,0,0,0,0,1,1,3,0,3,3,1,no
6,1,1,1,1,0,1,1,6,0,6,6,1,no
12,1,4,1,0,0,1,1,12,0,12,12,1,no
3,1,0,0,0,0,1,1,3,0,3,3,1,no
0,0,0,0,0,0,1,1,0,0,0,0,0,no
0,0,0,0,1,0,1,1,0,0,0,0,0,no
0,0,0,0,0,0,1,1,0,0,0,0,1,no
0,0,0,0,0,0,1,1,0,0,0,0,1,no
0,0,0,0,0,0,1,1,0,0,0,0,1,no
0,0,0,0,0,0,1,1,0,0,0,0,0,no
0,0,0,0,0,0,1,1,0,0,0,0,1,no
0,1,0,0,1,0,1,1,0,0,0,0,1,no
0,0,0,0,0,0,1,1,0,0,0,0,1,no
0,0,0,0,1,0,1,1,0,0,0,0,1,no
0,1,0,0,1,0,1,1,0,0,0,0,1,no
0,0,0,0,1,0,1,1,0,0,0,0,1,no
0,0,0,0,1,0,1,1,0,0,0,0,1,no
0,0,0,0,0,0,1,1,0,0,0,0,0,no
0,0,0,0,0,0,1,1,0,0,0,0,0,no
0,0,0,0,0,0,1,1,0,0,0,0,1,no
0,0,0,0,0,0,1,1,0,0,0,0,1,no
0,0,0,0,0,0,1,1,0,0,0,0,1,no
0,0,0,0,0,0,1,1,0,0,0,0,0,no
0,0,0,0,0,0,1,1,0,0,0,0,1,no
0,0,0,0,0,0,1,1,0,0,0,0,1,no
3,1,0,0,0,0,1,1,3,0,3,3,0,no
2,1,0,0,1,0,1,1,2,0,2,2,0,no
3,0,0,0,0,0,1,1,3,0,3,3,0,no
3,0,0,0,0,0,1,1,3,0,3,3,0,no
3,0,0,0,2,0,1,1,3,0,3,3,0,no
15,0,3,1,3,1,1,1,15,0,15,15,0,no
13,0,2,2,1,3,1,1,13,0,13,13,0,no
10,0,1,1,1,2,1,1,10,0,10,10,0,no
3,0,0,0,0,0,1,1,3,0,3,3,0,no
3,0,0,0,1,0,1,1,3,0,3,3,0,no
3,0,0,0,1,0,1,1,3,0,3,3,0,no
4,0,0,0,0,0,1,1,4,0,4,4,0,no
3,0,0,0,1,0,1,1,3,0,3,3,0,no
15,0,3,1,2,1,1,1,15,0,15,15,0,no
3,0,0,0,0,0,1,1,3,0,3,3,0,no
3,1,0,0,1,0,1,1,3,0,3,3,0,no
3,0,0,0,0,0,1,1,3,0,3,3,0,no
4,1,0,0,2,1,1,1,4,0,4,4,0,no
8,1,1,1,1,1,1,1,8,0,8,8,0,no
8,2,1,1,1,1,1,1,8,0,8,8,0,no
3,1,0,0,1,0,1,1,3,0,3,3,0,no
3,2,0,0,1,0,1,1,3,0,3,3,0,no
3,1,0,0,1,0,1,1,3,0,3,3,0,no
3,2,0,0,1,0,1,1,3,0,3,3,0,no
3,1,0,0,1,0,1,1,3,0,3,3,0,no
3,2,0,0,1,0,1,1,3,0,3,3,0,no
3,1,0,0,1,0,1,1,3,0,3,3,0,no
3,2,0,0,1,0,1,1,3,0,3,3,0,no
3,0,0,0,0,0,1,1,3,0,3,3,0,no
3,0,0,0,2,0,1,1,3,0,3,3,0,no
10,1,2,1,2,0,1,1,10,0,10,10,0,no
3,0,0,0,0,0,1,1,3,0,3,3,0,no
4,1,0,0,0,0,1,1,4,0,4,4,0,no
7,0,1,1,2,1,1,1,7,0,7,7,0,no
7,0,1,1,2,1,1,1,7,0,7,7,0,no
16,0,2,1,7,3,1,1,16,0,16,16,0,no
8,0,0,0,2,0,1,1,8,0,8,8,0,no
6,0,0,0,1,0,1,1,6,0,6,6,0,no
6,0,0,0,1,0,1,1,6,0,6,6,0,no
3,0,0,0,1,0,1,1,3,0,3,3,0,no
3,0,0,0,0,0,1,1,3,0,3,3,0,no
3,0,0,0,2,0,1,1,3,0,3,3,0,no
3,0,0,0,2,0,1,1,3,0,3,3,0,no
3,0,0,0,1,0,1,1,3,0,3,3,0,no
10,0,1,1,1,2,1,1,10,0,10,10,0,no
3,0,0,0,0,0,1,1,3,0,3,3,0,no
3,0,0,0,1,0,1,1,3,0,3,3,0,no
3,0,0,0,1,0,1,1,3,0,3,3,0,no
3,0,0,0,1,0,1,1,3,0,3,3,0,no
9,0,2,1,2,0,1,1,9,0,9,9,0,no
4,0,1,1,1,0,1,1,4,0,4,4,0,no
33,2,6,3,1,2,1,1,33,0,33,33,0,no
8,1,1,1,2,0,1,1,8,0,8,8,0,no
12,1,3,1,3,0,1,1,12,0,12,12,0,no
9,1,1,1,0,0,1,1,9,0,9,9,0,no
5,1,0,0,0,0,1,1,5,0,5,5,0,no
6,1,0,0,0,0,1,1,6,0,6,6,0,no
0,0,0,0,0,0,1,1,0,0,0,0,0,no
0,0,0,0,0,0,1,1,0,0,0,0,0,no
0,0,0,0,0,0,1,1,0,0,0,0,0,no
0,0,0,0,0,0,1,1,0,0,0,0,0,no
3,1,0,0,0,0,1,1,3,0,3,3,0,no
2,1,0,0,1,0,1,1,2,0,2,2,0,no
13,0,2,2,1,3,1,1,13,0,13,13,0,no
10,0,1,1,1,2,1,1,10,0,10,10,0,no
3,0,0,0,0,0,1,1,3,0,3,3,0,no
3,0,0,0,0,0,1,1,3,0,3,3,0,no
3,0,0,0,2,0,1,1,3,0,3,3,0,no
12,0,2,1,2,1,1,1,12,0,12,12,0,no
3,0,0,0,1,0,1,1,3,0,3,3,0,no
3,0,0,0,0,0,1,1,3,0,3,3,0,no
3,0,0,0,1,0,1,1,3,0,3,3,0,no
7,0,1,1,2,1,1,1,7,0,7,7,0,no
3,0,0,0,0,0,1,1,3,0,3,3,0,no
3,1,0,0,1,0,1,1,3,0,3,3,0,no
3,0,0,0,0,0,1,1,3,0,3,3,0,no
4,1,0,0,2,1,1,1,4,0,4,4,0,no
8,1,1,1,1,1,1,1,8,0,8,8,0,no
8,2,1,1,1,1,1,1,8,0,8,8,0,no
3,1,0,0,1,0,1,1,3,0,3,3,0,no
3,2,0,0,1,0,1,1,3,0,3,3,0,no
3,1,0,0,1,0,1,1,3,0,3,3,0,no
3,2,0,0,1,0,1,1,3,0,3,3,0,no
3,1,0,0,1,0,1,1,3,0,3,3,0,no
3,2,0,0,1,0,1,1,3,0,3,3,0,no
3,1,0,0,1,0,1,1,3,0,3,3,0,no
3,2,0,0,1,0,1,1,3,0,3,3,0,no
3,0,0,0,0,0,1,1,3,0,3,3,0,no
3,0,0,0,2,0,1,1,3,0,3,3,0,no
7,1,1,1,1,0,1,1,7,0,7,7,0,no
3,0,0,0,0,0,1,1,3,0,3,3,0,no
4,1,0,0,0,0,1,1,4,0,4,4,0,no
7,0,1,1,2,1,1,1,7,0,7,7,0,no
7,0,1,1,2,1,1,1,7,0,7,7,0,no
12,0,1,1,6,3,1,1,12,0,12,12,0,no
6,0,0,0,1,0,1,1,6,0,6,6,0,no
6,0,0,0,1,0,1,1,6,0,6,6,0,no
3,0,0,0,1,0,1,1,3,0,3,3,0,no
3,0,0,0,0,0,1,1,3,0,3,3,0,no
10,0,1,1,1,2,1,1,10,0,10,10,0,no
3,0,0,0,2,0,1,1,3,0,3,3,0,no
3,0,0,0,2,0,1,1,3,0,3,3,0,no
3,0,0,0,1,0,1,1,3,0,3,3,0,no
3,0,0,0,1,0,1,1,3,0,3,3,0,no
3,0,0,0,1,0,1,1,3,0,3,3,0,no
3,0,0,0,1,0,1,1,3,0,3,3,0,no
4,0,1,1,1,0,1,1,4,0,4,4,0,no
27,2,5,3,1,2,1,1,27,0,27,27,0,no
8,1,1,1,2,0,1,1,8,0,8,8,0,no
9,1,2,1,3,0,1,1,9,0,9,9,0,no
9,1,1,1,0,0,1,1,9,0,9,9,0,no
5,1,0,0,0,0,1,1,5,0,5,5,0,no
0,0,0,0,0,0,1,1,0,0,0,0,0,no
0,0,0,0,0,0,1,1,0,0,0,0,0,no
3,1,0,0,0,0,1,1,3,0,3,3,0,no
2,1,0,0,1,0,1,1,2,0,2,2,0,no
3,0,0,0,0,0,1,1,3,0,3,3,0,no
3,0,0,0,0,0,1,1,3,0,3,3,0,no
3,0,0,0,2,0,1,1,3,0,3,3,0,no
3,1,0,0,0,0,1,1,3,0,3,3,0,no
3,0,0,0,0,0,1,1,3,0,3,3,0,no
3,0,0,0,0,0,1,1,3,0,3,3,0,no
17,0,2,1,1,3,1,1,17,0,17,17,0,no
3,0,0,0,0,0,1,1,3,0,3,3,0,no
3,0,0,0,1,0,1,1,3,0,3,3,0,no
7,0,1,1,2,1,1,1,7,0,7,7,0,no
3,0,0,0,0,0,1,1,3,0,3,3,0,no
3,1,0,0,1,0,1,1,3,0,3,3,0,no
3,0,0,0,0,0,1,1,3,0,3,3,0,no
4,1,0,0,2,1,1,1,4,0,4,4,0,no
8,1,1,1,1,1,1,1,8,0,8,8,0,no
8,2,1,1,1,1,1,1,8,0,8,8,0,no
3,1,0,0,1,0,1,1,3,0,3,3,0,no
3,2,0,0,1,0,1,1,3,0,3,3,0,no
3,1,0,0,1,0,1,1,3,0,3,3,0,no
3,2,0,0,1,0,1,1,3,0,3,3,0,no
3,1,0,0,1,0,1,1,3,0,3,3,0,no
3,2,0,0,1,0,1,1,3,0,3,3,0,no
3,1,0,0,1,0,1,1,3,0,3,3,0,no
3,2,0,0,1,0,1,1,3,0,3,3,0,no
3,0,0,0,0,0,1,1,3,0,3,3,0,no
3,0,0,0,2,0,1,1,3,0,3,3,0,no
7,1,1,1,0,1,1,1,7,0,7,7,0,no
3,0,0,0,0,0,1,1,3,0,3,3,0,no
4,1,0,0,0,0,1,1,4,0,4,4,0,no
6,1,0,0,1,0,1,1,6,0,6,6,0,no
9,1,1,1,0,0,1,1,9,0,9,9,0,no
5,1,0,0,0,0,1,1,5,0,5,5,0,no
7,0,1,1,2,1,1,1,7,0,7,7,0,no
7,0,1,1,2,1,1,1,7,0,7,7,0,no
11,0,1,1,7,2,1,1,11,0,11,11,0,no
6,0,0,0,1,0,1,1,6,0,6,6,0,no
6,0,0,0,1,0,1,1,6,0,6,6,0,no
3,0,0,0,1,0,1,1,3,0,3,3,0,no
3,0,0,0,0,0,1,1,3,0,3,3,0,no
6,0,1,1,1,0,1,1,6,0,6,6,0,no
3,0,0,0,2,0,1,1,3,0,3,3,0,no
3,0,0,0,2,0,1,1,3,0,3,3,0,no
3,0,0,0,1,0,1,1,3,0,3,3,0,no
3,1,0,0,0,0,1,1,3,0,3,3,0,no
3,0,0,0,0,0,1,1,3,0,3,3,0,no
3,0,0,0,0,0,1,1,3,0,3,3,0,no
3,0,0,0,1,0,1,1,3,0,3,3,0,no
3,0,0,0,1,0,1,1,3,0,3,3,0,no
4,0,1,1,1,0,1,1,4,0,4,4,0,no
27,2,5,3,1,2,1,1,27,0,27,27,0,no
8,1,1,1,2,0,1,1,8,0,8,8,0,no
16,1,3,2,4,0,1,1,16,0,16,16,0,no
9,2,1,1,0,0,1,1,9,0,9,9,0,no
0,1,0,0,0,0,1,1,0,0,0,0,0,no
0,0,0,0,0,0,1,1,0,0,0,0,0,no
0,0,0,0,0,0,1,1,0,0,0,0,0,no
3,1,0,0,0,0,2,2,4,1,3,2.5,0,no
8,2,1,1,1,0,2,2,8,0,5,4,0,no
3,2,0,0,0,0,2,2,4,1,3,2.5,0,no
2,0,0,0,1,0,0,0,0,0,0,0,0,no
5,0,1,1,1,0,0,0,0,0,0,0,0,no
3,0,0,0,0,0,0,0,0,0,0,0,0,no
3,0,0,0,0,0,0,0,0,0,0,0,0,no
3,0,1,0,0,0,0,0,0,0,0,0,0,no
3,0,0,0,0,0,0,0,0,0,0,0,0,no
3,0,0,0,0,0,0,0,0,0,0,0,0,no
3,0,0,0,0,0,0,0,0,0,0,0,0,no
3,0,0,0,0,0,0,0,0,0,0,0,0,no
4,0,0,0,0,0,0,0,0,0,0,0,0,no
3,0,0,0,0,0,0,0,0,0,0,0,0,no
3,0,0,0,0,0,0,0,0,0,0,0,0,no
7,0,0,0,0,1,1,1,0,5,5,5,0,no
11,1,2,1,0,1,1,1,1,1,2,2,1,no
13,3,0,0,0,1,1,1,13,0,13,13,0,no
7,1,1,1,2,3,1,1,7,0,7,7,0,no
76,0,10,4,3,9,2,2,76,0,72,38,0,no
3,0,0,0,0,0,1,1,3,0,3,3,0,no
3,0,0,0,0,0,1,1,3,0,3,3,0,yes
6,2,1,1,1,1,1,1,6,0,6,6,0,no
16,2,4,1,0,1,1,1,16,0,16,16,0,yes
3,0,0,0,0,0,2,1,4,1,3,2.5,0,no
7,1,2,2,0,0,2,1,7,0,6,3.5,0,no
14,2,3,2,3,1,1,1,14,0,14,14,0,no
13,0,2,2,0,0,2,1,14,1,14,7.5,0,yes
57,0,12,3,2,1,2,1,57,0,31,28.5,0,yes
33,0,6,2,3,4,2,2,33,0,32,16.5,0,yes
14,0,1,1,0,0,1,1,14,0,14,14,0,no
7,0,1,1,0,1,1,1,7,0,7,7,0,no
4,3,0,0,0,0,1,1,4,0,4,4,0,no
42,2,8,3,3,1,2,2,42,0,38,21,0,no
5,0,0,0,0,0,1,1,16,0,16,16,0,yes
23,0,5,2,3,4,1,1,16,0,16,16,0,yes
23,0,7,2,1,0,1,1,16,0,16,16,0,yes
16,0,3,1,1,0,1,1,16,0,16,16,0,yes
5,1,0,0,0,1,1,1,5,0,5,5,0,no
4,2,0,0,0,0,1,1,4,0,4,4,0,no
36,2,11,3,0,3,1,1,36,0,36,36,0,yes
14,3,0,0,0,0,1,1,14,0,14,14,0,no
21,0,6,3,2,0,1,1,21,0,21,21,0,no
6,0,1,1,0,1,2,1,6,0,5,3,0,no
3,1,0,0,0,0,1,1,3,0,3,3,0,no
6,0,1,1,0,0,2,1,7,1,6,4,0,no
13,0,2,1,0,0,2,1,18,5,18,11.5,0,no
4,0,0,0,0,0,1,1,4,0,4,4,0,no
42,0,7,3,1,7,2,2,42,0,39,21,0,no
19,0,4,2,2,0,1,1,19,0,19,19,0,no
15,0,4,2,2,0,1,1,15,0,15,15,0,no
37,0,7,3,1,6,2,2,37,0,34,18.5,0,no
3,1,0,0,0,0,1,1,3,0,3,3,0,no
6,2,2,0,2,3,1,1,6,0,6,6,0,no
4,1,0,0,0,1,1,1,4,0,4,4,0,no
8,1,2,2,0,0,2,1,10,2,10,6,0,yes
18,1,1,1,0,1,3,2,19,1,17,6.666667,1,no
3,0,0,0,0,0,1,1,3,0,3,3,0,no
3,0,0,0,0,0,1,1,3,0,3,3,0,no
3,0,0,0,0,0,1,1,3,0,3,3,0,no
12,2,2,1,5,0,1,1,12,0,12,12,0,no
28,1,2,1,0,2,1,1,28,0,28,28,0,no
24,1,5,3,0,5,1,1,24,0,24,24,0,no
4,0,0,0,0,1,1,1,4,0,4,4,0,no
3,0,0,0,0,0,1,1,3,0,3,3,0,no
23,1,3,1,0,0,3,1,23,0,18,7.666667,0,yes
6,0,0,0,0,0,3,1,7,1,5,2.666667,0,no
4,0,0,0,0,0,1,1,4,0,4,4,0,no
8,1,1,1,0,0,1,1,8,0,8,8,1,no
5,1,0,0,0,0,1,1,5,0,5,5,0,no
13,0,3,2,0,0,1,1,13,0,13,13,0,no
3,1,0,0,0,0,1,1,3,0,3,3,0,no
43,0,5,3,1,7,3,2,46,3,46,16.333333,1,no
11,3,2,2,0,2,1,1,11,0,11,11,0,no
4,3,0,0,0,0,1,1,4,0,4,4,0,no
18,2,3,3,1,3,3,2,21,3,21,8,1,no
12,2,3,3,1,2,3,2,15,3,15,6,1,no
4,0,0,0,0,0,1,1,4,0,4,4,0,no
4,2,0,0,0,0,1,1,4,0,4,4,0,no
3,1,0,0,0,0,1,1,3,0,3,3,0,no
3,2,0,0,0,0,1,1,3,0,3,3,0,no
3,2,0,0,0,0,1,1,3,0,3,3,0,no
3,1,0,0,0,0,1,1,3,0,3,3,0,no
3,2,0,0,0,0,1,1,3,0,3,3,0,no
3,1,0,0,0,0,1,1,3,0,3,3,0,no
3,2,0,0,0,0,1,1,3,0,3,3,0,no
13,3,0,0,0,1,2,1,14,1,13,7.5,0,no
45,1,9,3,0,5,2,2,45,0,43,22.5,0,yes
6,1,0,0,1,2,1,1,6,0,6,6,0,no
3,0,0,0,0,0,1,1,3,0,3,3,0,no
9,2,2,2,1,2,1,1,9,0,9,9,0,no
50,0,10,3,5,5,1,1,50,0,50,50,0,yes
21,0,4,2,0,0,2,1,45,24,45,34.5,0,yes
29,0,5,1,0,0,5,1,30,1,23,6.2,0,yes
3,0,0,0,0,0,1,1,3,0,3,3,0,no
38,0,9,3,0,3,2,2,38,0,36,19,0,yes
4,2,0,0,0,0,1,1,4,0,4,4,0,no
4,0,0,0,0,0,1,1,4,0,4,4,0,no
8,1,0,0,0,0,0,0,0,0,0,0,0,no
8,2,0,0,0,0,0,0,0,0,0,0,0,no
2,0,0,0,0,0,0,0,0,0,0,0,0,no
11,0,2,1,1,2,0,0,0,0,0,0,0,no
14,1,2,1,0,3,0,0,0,0,0,0,0,no
14,3,2,1,0,3,0,0,0,0,0,0,0,no
23,0,4,2,0,3,0,0,0,0,0,0,0,no
5,1,0,0,0,0,0,0,0,0,0,0,0,no
5,2,0,0,0,0,0,0,0,0,0,0,0,no
3,0,0,0,0,0,0,0,0,0,0,0,0,no
15,0,3,2,2,1,0,0,0,0,0,0,0,no
10,1,2,2,0,0,0,0,0,0,0,0,0,no
14,1,3,2,0,0,0,0,0,0,0,0,0,no
7,3,1,1,0,0,0,0,0,0,0,0,0,no
5,1,0,0,0,1,0,0,0,0,0,0,0,no
25,1,4,2,0,6,2,1,2,2,2,2,0,no
4,1,0,0,0,0,1,1,4,0,4,4,0,no
11,1,4,1,4,0,1,1,11,0,11,11,0,no
16,1,3,2,0,4,1,1,16,0,16,16,0,no
3,0,0,0,0,0,1,1,3,0,3,3,0,no
13,1,2,1,2,2,1,1,13,0,13,13,0,no
4,1,0,0,0,0,1,1,4,0,4,4,0,no
5,1,1,1,0,0,1,1,5,0,5,5,0,no
3,1,0,0,0,0,1,1,3,0,3,3,0,no
3,1,0,0,0,0,1,1,3,0,3,3,0,no
0,1,0,0,0,0,1,1,0,0,0,0,0,no
0,1,0,0,0,0,1,1,0,0,0,0,0,no
15,2,1,1,1,4,1,1,15,0,15,15,0,no
3,1,0,0,0,0,1,1,3,0,3,3,0,no
3,0,0,0,0,0,1,1,3,0,3,3,0,no
25,2,6,3,2,4,2,2,26,1,25,13.5,0,no
3,3,0,0,0,0,1,1,3,0,3,3,0,no
45,4,10,3,2,7,2,2,46,1,45,23.5,0,no
5,5,2,0,0,2,1,1,5,0,5,5,0,no
41,1,8,2,3,8,2,2,42,1,41,21.5,0,no
3,3,0,0,0,0,1,1,3,0,3,3,0,no
3,0,0,0,0,0,1,1,3,0,3,3,0,no
12,0,3,3,0,1,1,1,12,0,12,12,0,no
24,1,4,3,0,5,2,2,25,1,24,13,0,no
9,3,2,1,0,2,1,1,9,0,9,9,0,no
3,0,0,0,0,0,1,1,3,0,3,3,0,no
6,1,0,0,0,1,1,1,6,0,6,6,0,no
10,2,0,0,0,2,1,1,10,0,10,10,0,no
7,2,0,0,0,1,1,1,7,0,7,7,0,no
3,1,0,0,0,0,1,1,3,0,3,3,0,no
9,3,2,1,0,2,1,1,9,0,9,9,0,no
3,0,0,0,0,0,1,1,3,0,3,3,0,no
6,1,0,0,0,1,1,1,6,0,6,6,0,no
13,2,0,0,0,3,1,1,13,0,13,13,0,no
7,2,0,0,0,1,1,1,7,0,7,7,0,no
0,3,0,0,0,0,1,1,0,0,0,0,0,no
0,0,0,0,0,0,1,1,0,0,0,0,0,no
0,1,0,0,0,0,1,1,0,0,0,0,0,no
0,2,0,0,0,0,1,1,0,0,0,0,0,no
0,2,0,0,0,0,1,1,0,0,0,0,0,no
8,0,0,0,0,0,1,1,8,0,8,8,0,no
3,0,0,0,0,0,1,1,3,0,3,3,0,no
13,2,4,4,1,1,1,1,13,0,13,13,1,no
20,1,5,3,4,3,1,1,20,0,20,20,0,no
3,0,0,0,0,0,1,1,0,3,3,3,0,no
5,1,0,0,1,0,0,0,0,0,0,0,0,no
14,0,2,1,0,1,2,2,2,2,2,2,1,no
23,1,4,2,2,3,1,1,10,0,10,10,0,no
19,1,2,2,0,1,2,1,19,0,18,9.5,0,no
17,1,2,1,0,1,5,4,4,3,2,1.4,0,no
3,0,0,0,0,0,0,0,0,0,0,0,0,no
38,2,6,4,2,8,2,2,2,2,2,2,1,no
5,1,1,1,0,0,1,1,5,0,5,5,1,no
9,0,2,2,0,0,1,1,9,0,9,9,1,no
13,1,2,1,3,1,0,0,0,0,0,0,0,no
3,0,0,0,0,0,0,0,0,0,0,0,0,no
3,0,0,0,0,0,1,1,3,0,3,3,1,no
7,2,1,1,0,1,0,0,0,0,0,0,0,no
9,1,2,1,0,1,0,0,0,0,0,0,0,no
7,2,1,1,1,2,1,1,7,0,7,7,1,no
6,0,1,1,0,0,0,0,0,0,0,0,0,no
6,1,1,1,0,0,0,0,0,0,0,0,0,no
5,0,1,1,1,1,0,0,0,0,0,0,0,no
3,1,0,0,0,0,0,0,0,0,0,0,0,no
3,2,0,0,0,0,0,0,0,0,0,0,0,no
4,2,0,0,0,0,1,1,4,0,4,4,1,no
8,2,0,0,0,0,1,1,8,0,8,8,1,yes
0,2,0,0,0,0,1,1,0,0,0,0,1,no
3,0,0,0,0,0,1,1,3,0,3,3,1,no
14,5,3,3,0,1,1,1,14,0,14,14,0,no
11,4,2,1,0,1,1,1,11,0,11,11,0,no
15,1,2,2,1,2,1,1,15,0,15,15,0,no
12,2,2,1,0,1,1,1,12,0,12,12,0,no
7,0,1,1,1,0,1,1,1,1,2,2,0,no
0,0,0,0,0,0,0,0,0,0,0,0,0,no
5,0,0,0,0,0,0,0,0,0,0,0,0,no
8,1,0,1,0,0,0,0,0,0,0,0,0,no
8,2,0,1,0,0,0,0,0,0,0,0,0,no
10,1,0,1,0,0,0,0,0,0,0,0,0,no
22,0,2,2,0,1,0,0,0,0,0,0,0,no
3,1,0,0,0,0,1,1,3,0,3,3,0,no
9,1,1,1,0,1,1,1,9,0,9,9,0,no
3,1,0,0,0,0,1,1,3,0,3,3,1,no
6,1,0,0,0,2,1,1,6,0,6,6,0,no
3,1,0,0,0,0,0,0,0,0,0,0,0,no
14,1,2,1,2,3,0,0,0,0,0,0,0,no
8,1,1,1,0,1,1,1,11,0,11,11,0,no
11,1,2,2,0,2,1,1,11,0,11,11,0,no
0,1,0,0,1,0,1,1,0,0,0,0,0,no
0,1,0,0,1,0,1,1,0,0,0,0,0,no
11,2,2,1,0,1,1,1,11,0,11,11,1,no
13,5,2,2,0,2,1,1,13,0,13,13,0,no
21,7,2,1,0,0,1,1,21,0,21,21,1,no
25,2,3,1,0,1,1,1,25,0,25,25,0,no
23,3,2,1,2,0,1,1,23,0,23,23,0,no
18,3,2,1,2,0,1,1,18,0,18,18,0,no
8,4,1,1,1,0,1,1,8,0,8,8,0,no
10,2,1,1,0,0,1,1,10,0,10,10,0,no
16,4,2,1,0,0,1,1,16,0,16,16,1,no
7,4,1,1,0,0,1,1,7,0,7,7,1,no
0,1,0,0,1,0,1,1,0,0,0,0,0,no
6,1,1,1,0,0,1,1,6,0,6,6,1,no
9,1,2,1,0,0,1,1,9,0,9,9,1,no
4,2,0,0,0,0,1,1,4,0,4,4,0,no
3,0,0,0,0,0,1,1,3,0,3,3,0,no
3,0,0,0,0,0,1,1,3,0,3,3,0,no
3,1,0,0,0,0,1,1,3,0,3,3,0,no
3,1,0,0,0,0,1,1,3,0,3,3,0,no
3,1,0,0,0,0,1,1,3,0,3,3,1,no
3,0,0,0,0,0,1,1,3,0,3,3,1,no
20,1,5,1,2,0,2,2,20,0,18,10,1,no
5,0,1,1,0,0,1,1,5,0,5,5,1,no
4,0,0,0,0,0,1,1,4,0,4,4,0,no
4,2,0,0,0,0,1,1,4,0,4,4,0,no
7,1,1,1,1,0,1,1,7,0,7,7,0,no
52,0,12,5,8,4,1,1,52,0,52,52,0,no
3,4,0,0,0,0,1,1,3,0,3,3,0,no
3,4,0,0,0,0,1,1,3,0,3,3,0,no
3,4,0,0,0,0,1,1,3,0,3,3,0,no
3,5,0,0,0,0,1,1,3,0,3,3,0,no
0,1,0,0,0,0,1,1,0,0,0,0,0,no
3,2,0,0,0,0,1,1,3,0,3,3,0,no
21,3,5,2,4,2,1,1,21,0,21,21,0,no
0,3,0,0,0,0,1,1,0,0,0,0,0,no
0,0,0,0,0,0,1,1,0,0,0,0,0,no
0,2,0,0,0,0,1,1,0,0,0,0,0,no
0,0,0,0,0,0,1,1,0,0,0,0,0,no
8,0,2,2,1,0,1,1,8,0,8,8,0,no
3,0,0,0,0,0,1,1,3,0,3,3,0,no
3,0,0,0,0,0,1,1,3,0,3,3,0,no
3,0,0,0,0,0,1,1,3,0,3,3,0,no
3,0,0,0,0,0,1,1,3,0,3,3,0,no
3,0,0,0,0,0,1,1,3,0,3,3,0,no
6,0,1,1,1,0,1,1,6,0,6,6,0,no
3,0,0,0,0,0,1,1,3,0,3,3,0,no
7,1,1,1,1,0,1,1,7,0,7,7,0,no
5,1,0,0,0,0,1,1,5,0,5,5,0,no
12,1,3,1,3,0,1,1,12,0,12,12,0,no
3,1,0,0,0,0,1,1,3,0,3,3,0,no
47,0,11,4,8,4,1,1,47,0,47,47,0,no
46,0,11,4,8,4,1,1,46,0,46,46,0,no
3,0,0,0,0,0,1,1,3,0,3,3,0,no
3,0,0,0,0,0,1,1,3,0,3,3,0,no
3,0,0,0,0,0,1,1,3,0,3,3,0,no
3,0,0,0,0,0,1,1,3,0,3,3,0,no
3,0,0,0,0,0,1,1,3,0,3,3,0,no
3,0,0,0,0,0,1,1,3,0,3,3,0,no
3,0,0,0,0,0,1,1,3,0,3,3,0,no
3,0,0,0,0,0,1,1,3,0,3,3,0,no
3,1,0,0,1,0,1,1,3,0,3,3,0,no
3,1,0,0,0,0,1,1,3,0,3,3,0,no
8,2,1,1,0,1,1,1,8,0,8,8,0,no
11,0,2,2,1,4,1,1,11,0,11,11,0,no
10,2,0,0,0,1,1,1,10,0,10,10,0,no
3,0,0,0,0,0,1,1,3,0,3,3,0,no
3,1,0,0,0,0,1,1,3,0,3,3,0,no
3,1,0,0,0,0,1,1,3,0,3,3,0,no
3,0,0,0,0,0,1,1,3,0,3,3,0,no
3,1,0,0,0,0,1,1,3,0,3,3,0,no
3,0,0,0,0,0,1,1,3,0,3,3,0,no
3,0,0,0,0,0,1,1,3,0,3,3,0,no
3,2,0,0,0,0,1,1,3,0,3,3,0,no
3,1,0,0,0,0,1,1,3,0,3,3,0,no
3,1,0,0,0,0,1,1,3,0,3,3,0,no
3,0,0,0,0,0,1,1,3,0,3,3,0,no
3,0,0,0,0,0,1,1,3,0,3,3,0,no
4,1,0,0,0,1,1,1,4,0,4,4,0,no
10,2,0,0,0,1,1,1,10,0,10,10,0,no
3,1,0,0,0,0,1,1,3,0,3,3,0,no
5,1,1,1,1,2,1,1,5,0,5,5,0,no
3,0,0,0,0,0,1,1,3,0,3,3,0,no
3,1,0,0,0,0,1,1,3,0,3,3,0,no
3,1,0,0,0,0,1,1,3,0,3,3,0,no
3,0,0,0,0,0,1,1,3,0,3,3,0,no
3,0,0,0,0,0,1,1,3,0,3,3,0,no
6,1,1,1,1,0,1,1,6,0,6,6,0,no
3,1,0,0,0,0,1,1,3,0,3,3,0,no
3,1,0,0,0,0,1,1,3,0,3,3,0,no
3,0,0,0,0,0,1,1,3,0,3,3,0,no
3,0,0,0,0,0,1,1,3,0,3,3,0,no
3,1,0,0,0,0,1,1,3,0,3,3,0,no
4,1,0,0,0,1,1,1,4,0,4,4,0,no
0,1,0,0,1,0,1,1,0,0,0,0,0,no
0,0,0,0,1,0,1,1,0,0,0,0,0,no
0,1,0,0,1,0,1,1,0,0,0,0,0,no
0,2,0,0,1,0,1,1,0,0,0,0,0,no
0,2,0,0,1,0,1,1,0,0,0,0,0,no
0,4,0,0,1,0,1,1,0,0,0,0,0,no
0,1,0,0,1,0,1,1,0,0,0,0,0,no
0,2,0,0,1,0,1,1,0,0,0,0,0,no
0,3,0,0,1,0,1,1,0,0,0,0,0,no
0,1,0,0,1,0,1,1,0,0,0,0,0,no
0,0,0,0,1,0,1,1,0,0,0,0,0,no
0,0,0,0,1,0,1,1,0,0,0,0,0,no
0,1,0,0,1,0,1,1,0,0,0,0,0,no
0,1,0,0,1,0,1,1,0,0,0,0,0,no
0,3,0,0,1,0,1,1,0,0,0,0,0,no
0,3,0,0,1,0,1,1,0,0,0,0,0,no
0,1,0,0,1,0,1,1,0,0,0,0,0,no
0,1,0,0,1,0,1,1,0,0,0,0,0,no
0,1,0,0,1,0,1,1,0,0,0,0,0,no
0,1,0,0,1,0,1,1,0,0,0,0,0,no
0,2,0,0,1,0,1,1,0,0,0,0,0,no
0,1,0,0,1,0,1,1,0,0,0,0,0,no
0,0,0,0,1,0,1,1,0,0,0,0,0,no
0,2,0,0,1,0,1,1,0,0,0,0,0,no
0,2,0,0,1,0,1,1,0,0,0,0,0,no
0,0,0,0,1,0,1,1,0,0,0,0,0,no
0,2,0,0,1,0,1,1,0,0,0,0,0,no
0,2,0,0,1,0,1,1,0,0,0,0,0,no
0,2,0,0,1,0,1,1,0,0,0,0,0,no
0,2,0,0,1,0,1,1,0,0,0,0,0,no
3,1,0,0,0,0,1,1,3,0,3,3,0,no
10,1,4,1,4,1,1,1,10,0,10,10,0,no
3,0,0,0,0,0,1,1,3,0,3,3,0,no
3,0,1,0,0,0,1,1,3,0,3,3,0,no
3,1,0,0,0,0,1,1,3,0,3,3,0,no
3,0,0,0,0,0,1,1,3,0,3,3,0,no
13,3,2,2,0,0,1,1,13,0,13,13,0,no
9,1,3,1,3,0,1,1,9,0,9,9,0,no
3,1,0,0,0,0,1,1,3,0,3,3,0,no
12,1,0,0,0,0,1,1,12,0,12,12,0,no
12,1,0,0,0,0,1,1,12,0,12,12,0,no
70,0,18,5,9,6,2,2,71,1,70,36,0,no
7,0,2,1,2,0,1,1,7,0,7,7,0,no
25,0,6,3,3,4,1,1,25,0,25,25,0,no
5,1,1,1,1,0,1,1,5,0,5,5,0,no
5,2,1,1,1,0,1,1,5,0,5,5,0,no
5,0,1,1,1,0,1,1,5,0,5,5,0,no
8,1,2,1,2,0,2,2,9,1,8,5,0,no
8,2,2,1,2,0,2,2,9,1,8,5,0,no
8,3,2,1,2,0,2,2,9,1,8,5,0,no
10,2,3,1,0,0,1,1,10,0,10,10,0,no
10,4,3,1,0,0,1,1,10,0,10,10,0,no
11,2,3,1,3,0,2,2,12,1,11,6.5,0,no
11,4,3,1,3,0,2,2,12,1,11,6.5,0,no
5,0,1,1,1,0,1,1,5,0,5,5,0,no
5,0,1,1,1,0,1,1,5,0,5,5,0,no
5,0,1,1,1,0,1,1,5,0,5,5,0,no
5,1,1,1,1,0,1,1,5,0,5,5,0,no
6,1,1,1,1,0,1,1,6,0,6,6,0,no
10,2,3,1,0,0,1,1,10,0,10,10,0,no
8,1,2,1,2,0,2,2,9,1,8,5,0,no
5,1,1,1,1,0,1,1,5,0,5,5,0,no
3,1,0,0,0,0,1,1,3,0,3,3,0,no
3,2,0,0,0,0,1,1,3,0,3,3,0,no
3,1,0,0,0,0,1,1,3,0,3,3,0,no
5,0,1,1,1,0,1,1,5,0,5,5,0,no
10,1,0,0,0,2,1,1,10,0,10,10,0,no
8,1,2,1,2,0,2,2,9,1,8,5,0,no
8,3,2,1,2,0,2,2,9,1,8,5,0,no
10,3,3,1,0,0,1,1,10,0,10,10,0,no
5,0,1,1,1,0,1,1,5,0,5,5,0,no
5,0,1,1,1,0,1,1,5,0,5,5,0,no
5,0,1,1,1,0,1,1,5,0,5,5,0,no
5,1,1,1,1,0,1,1,5,0,5,5,0,no
8,1,2,1,2,0,2,2,9,1,8,5,0,no
3,0,0,0,0,0,1,1,3,0,3,3,0,no
36,4,10,4,6,3,1,1,36,0,36,36,0,no
103,3,31,5,13,10,1,1,103,0,103,103,0,no
19,1,6,3,2,0,1,1,19,0,19,19,0,no
6,3,0,0,0,1,1,1,6,0,6,6,0,no
5,1,0,0,0,0,1,1,5,0,5,5,0,no
8,0,2,2,1,0,1,1,8,0,8,8,0,no
3,1,0,0,0,0,1,1,3,0,3,3,0,no
3,1,0,0,0,0,1,1,3,0,3,3,0,no
3,0,0,0,0,0,1,1,3,0,3,3,0,no
3,0,0,0,0,0,1,1,3,0,3,3,0,no
3,0,0,0,0,0,1,1,3,0,3,3,0,no
10,2,3,1,0,0,1,1,10,0,10,10,0,no
3,0,0,0,0,0,1,1,3,0,3,3,0,no
5,2,1,1,1,0,1,1,5,0,5,5,0,no
3,0,0,0,0,0,1,1,3,0,3,3,0,no
3,2,0,0,0,0,1,1,3,0,3,3,0,no
3,2,0,0,0,0,1,1,3,0,3,3,0,no
24,1,7,2,5,3,1,1,24,0,24,24,0,no
3,0,0,0,0,0,1,1,3,0,3,3,0,no
3,1,0,0,0,0,1,1,3,0,3,3,0,no
3,1,0,0,0,0,1,1,3,0,3,3,0,no
17,2,4,1,3,2,1,1,17,0,17,17,0,no
7,0,2,1,2,0,1,1,7,0,7,7,0,no
3,1,0,0,0,0,1,1,3,0,3,3,0,no
3,2,0,0,0,0,1,1,3,0,3,3,0,no
61,4,21,4,12,2,1,1,61,0,61,61,0,no
3,1,0,0,0,0,1,1,3,0,3,3,0,no
3,2,0,0,0,0,1,1,3,0,3,3,0,no
9,0,3,1,3,0,1,1,9,0,9,9,0,no
8,0,0,0,0,1,1,1,8,0,8,8,0,no
11,1,3,1,3,3,1,1,11,0,11,11,0,no
55,0,14,5,10,4,1,1,55,0,55,55,0,no
8,1,2,1,1,0,1,1,8,0,8,8,0,no
79,0,20,5,8,7,1,1,79,0,79,79,0,no
64,0,15,5,8,6,1,1,64,0,64,64,0,no
3,2,0,0,0,0,1,1,3,0,3,3,0,no
3,2,0,0,0,0,1,1,3,0,3,3,0,no
2,0,0,0,0,0,1,1,2,0,2,2,0,no
7,1,2,1,2,0,1,1,7,0,7,7,0,no
3,1,0,0,0,0,1,1,3,0,3,3,0,no
20,4,5,2,2,1,1,1,20,0,20,20,0,no
3,1,0,0,0,0,1,1,3,0,3,3,0,no
6,1,1,1,1,1,1,1,6,0,6,6,0,no
3,2,0,0,0,0,1,1,3,0,3,3,0,no
3,0,0,0,0,0,1,1,3,0,3,3,0,no
3,0,0,0,0,0,1,1,3,0,3,3,0,no
3,0,0,0,0,0,1,1,3,0,3,3,0,no
3,0,0,0,0,0,1,1,3,0,3,3,0,no
3,0,0,0,0,0,1,1,3,0,3,3,0,no
7,2,1,1,0,0,1,1,7,0,7,7,0,no
12,1,4,1,5,1,1,1,12,0,12,12,0,no
5,0,0,0,0,1,1,1,5,0,5,5,0,no
3,0,0,0,0,0,1,1,3,0,3,3,0,no
3,0,0,0,0,0,1,1,3,0,3,3,0,no
8,0,0,0,0,1,1,1,8,0,8,8,0,no
5,3,0,0,0,0,1,1,5,0,5,5,0,no
9,0,0,0,0,1,1,1,9,0,9,9,0,no
0,0,0,0,1,0,1,1,0,0,0,0,0,no
0,0,0,0,1,0,1,1,0,0,0,0,0,no
3,1,0,0,0,0,1,1,3,0,3,3,0,no
10,4,3,1,0,0,1,1,10,0,10,10,0,no
14,3,3,1,1,2,1,1,14,0,14,14,0,no
6,0,0,0,0,1,1,1,6,0,6,6,0,no
9,1,1,1,0,1,1,1,9,0,9,9,0,no
3,0,0,0,0,0,1,1,3,0,3,3,0,no
3,0,0,0,0,0,1,1,3,0,3,3,0,no
11,1,2,1,0,0,1,1,11,0,11,11,0,no
11,1,2,1,0,0,1,1,11,0,11,11,0,no
3,2,0,0,0,0,1,1,3,0,3,3,0,no
9,2,1,1,0,1,1,1,9,0,9,9,0,no
3,2,0,0,0,0,1,1,3,0,3,3,0,no
36,4,9,4,2,3,1,1,36,0,36,36,0,no
7,2,1,1,0,0,1,1,7,0,7,7,0,no
12,1,4,1,5,1,1,1,12,0,12,12,0,no
5,0,0,0,0,1,1,1,5,0,5,5,0,no
3,0,0,0,0,0,1,1,3,0,3,3,0,no
3,0,0,0,0,0,1,1,3,0,3,3,0,no
8,0,0,0,0,1,1,1,8,0,8,8,0,no
0,0,0,0,1,0,1,1,0,0,0,0,0,no
0,0,0,0,1,0,1,1,0,0,0,0,0,no
0,0,0,0,1,0,1,1,0,0,0,0,0,no
5,2,0,0,0,0,1,1,5,0,5,5,0,no
5,2,0,0,0,0,1,1,5,0,5,5,0,no
9,0,2,2,0,0,1,1,9,0,9,9,0,no
7,1,2,2,1,0,1,1,7,0,7,7,0,no
13,0,2,2,0,1,1,1,13,0,13,13,0,no
3,0,0,0,0,0,1,1,3,0,3,3,0,no
20,0,4,4,0,1,1,1,20,0,20,20,0,no
9,0,0,0,0,1,1,1,9,0,9,9,0,no
5,3,0,0,0,0,1,1,5,0,5,5,0,no
7,0,1,1,2,1,1,1,7,0,7,7,0,no
3,0,0,0,0,0,1,1,3,0,3,3,0,no
2,0,0,0,0,0,1,1,2,0,2,2,0,no
9,0,0,0,0,1,1,1,9,0,9,9,0,no
4,2,0,0,0,0,1,1,4,0,4,4,0,no
3,0,0,0,0,0,1,1,3,0,3,3,0,no
3,0,0,0,0,0,1,1,3,0,3,3,0,no
3,0,0,0,0,0,1,1,3,0,3,3,0,no
3,0,0,0,0,0,1,1,3,0,3,3,0,no
3,0,0,0,0,0,1,1,3,0,3,3,0,no
3,0,0,0,0,0,1,1,3,0,3,3,0,no
3,0,0,0,0,0,1,1,3,0,3,3,0,no
3,1,0,0,0,0,1,1,3,0,3,3,0,no
7,0,0,0,0,1,1,1,7,0,7,7,0,no
20,2,4,3,3,4,1,1,20,0,20,20,0,no
5,3,0,0,0,0,1,1,5,0,5,5,0,no
3,0,0,0,0,0,1,1,3,0,3,3,0,no
3,0,0,0,0,0,1,1,3,0,3,3,0,no
3,0,0,0,0,0,1,1,3,0,3,3,0,no
3,0,0,0,0,0,1,1,3,0,3,3,0,no
3,1,0,0,1,0,1,1,3,0,3,3,0,no
3,1,0,0,0,0,1,1,3,0,3,3,0,no
6,1,1,1,1,1,1,1,6,0,6,6,0,no
6,1,1,1,1,1,1,1,6,0,6,6,0,no
6,1,1,1,0,0,1,1,6,0,6,6,0,no
3,1,0,0,0,0,1,1,3,0,3,3,0,no
27,2,4,1,2,5,1,1,27,0,27,27,0,no
4,1,0,0,0,0,1,1,4,0,4,4,0,no
17,4,2,2,1,1,1,1,17,0,17,17,0,no
6,6,0,0,0,0,1,1,6,0,6,6,0,no
6,0,0,0,0,0,1,1,6,0,6,6,0,no
3,3,0,0,0,0,1,1,3,0,3,3,0,no
12,0,1,1,1,2,1,1,12,0,12,12,0,no
5,0,1,1,1,0,1,1,5,0,5,5,0,no
3,0,0,0,0,0,1,1,3,0,3,3,0,no
5,0,1,1,1,0,1,1,5,0,5,5,0,no
3,0,0,0,0,0,1,1,3,0,3,3,0,no
11,0,2,1,2,1,1,1,11,0,11,11,0,no
11,0,2,1,2,1,1,1,11,0,11,11,0,no
11,1,2,1,2,1,1,1,11,0,11,11,0,no
11,2,2,1,2,1,1,1,11,0,11,11,0,no
11,0,2,1,2,1,1,1,11,0,11,11,0,no
11,0,2,1,2,1,1,1,11,0,11,11,0,no
11,0,2,1,2,1,1,1,11,0,11,11,0,no
11,0,2,1,2,1,1,1,11,0,11,11,0,no
11,0,2,1,2,1,1,1,11,0,11,11,0,no
11,0,2,1,2,1,1,1,11,0,11,11,0,no
11,0,2,1,2,1,1,1,11,0,11,11,0,no
11,0,2,1,2,1,1,1,11,0,11,11,0,no
11,0,2,1,2,1,1,1,11,0,11,11,0,no
13,0,2,1,2,1,1,1,13,0,13,13,0,no
11,1,2,1,2,1,1,1,11,0,11,11,0,no
11,1,2,1,2,1,1,1,11,0,11,11,0,no
11,1,2,1,2,1,1,1,11,0,11,11,0,no
11,3,2,1,2,1,1,1,11,0,11,11,0,no
11,1,2,1,2,1,1,1,11,0,11,11,0,no
11,1,2,1,2,1,1,1,11,0,11,11,0,no
11,1,2,1,2,1,1,1,11,0,11,11,0,no
11,1,2,1,2,1,1,1,11,0,11,11,0,no
11,1,2,1,2,1,1,1,11,0,11,11,0,no
33,1,12,11,2,1,1,1,33,0,33,33,0,no
11,1,2,1,2,1,1,1,11,0,11,11,0,no
11,1,2,1,2,1,1,1,11,0,11,11,0,no
4,1,0,0,0,0,1,1,4,0,4,4,0,no
3,0,0,0,0,0,1,1,3,0,3,3,0,no
5,0,0,0,0,1,1,1,5,0,5,5,0,no
3,0,0,0,0,0,1,1,3,0,3,3,0,no
3,0,0,0,0,0,1,1,3,0,3,3,0,no
3,1,0,0,0,0,1,1,3,0,3,3,0,no
5,2,1,1,1,0,1,1,5,0,5,5,0,no
3,0,0,0,0,0,1,1,3,0,3,3,0,no
3,0,0,0,0,0,1,1,3,0,3,3,0,no
3,0,0,0,0,0,1,1,3,0,3,3,0,no
3,0,0,0,0,0,1,1,3,0,3,3,0,no
3,0,0,0,0,0,1,1,3,0,3,3,0,no
3,0,0,0,0,0,1,1,3,0,3,3,0,no
3,0,0,0,0,0,1,1,3,0,3,3,0,no
3,0,0,0,0,0,1,1,3,0,3,3,0,no
3,0,0,0,0,0,1,1,3,0,3,3,0,no
4,0,0,0,0,0,1,1,4,0,4,4,0,no
5,1,0,0,0,0,1,1,5,0,5,5,0,no
4,0,0,0,0,0,1,1,4,0,4,4,0,no
3,1,0,0,0,0,1,1,3,0,3,3,0,no
3,1,0,0,0,0,1,1,3,0,3,3,0,no
3,1,0,0,0,0,1,1,3,0,3,3,0,no
3,3,0,0,0,0,1,1,3,0,3,3,0,no
3,1,0,0,0,0,1,1,3,0,3,3,0,no
3,1,0,0,0,0,1,1,3,0,3,3,0,no
3,1,0,0,0,0,1,1,3,0,3,3,0,no
3,1,0,0,0,0,1,1,3,0,3,3,0,no
3,1,0,0,0,0,1,1,3,0,3,3,0,no
3,1,0,0,0,0,1,1,3,0,3,3,0,no
3,1,0,0,0,0,1,1,3,0,3,3,0,no
15,2,3,2,1,3,1,1,15,0,15,15,0,no
4,1,0,0,0,0,1,1,4,0,4,4,0,no
5,4,0,0,0,0,1,1,5,0,5,5,0,no
11,6,1,1,1,1,1,1,11,0,11,11,0,no
5,0,0,0,0,0,1,1,5,0,5,5,0,no
3,3,0,0,0,0,1,1,3,0,3,3,0,no
12,0,1,1,1,2,1,1,12,0,12,12,0,no
3,1,0,0,0,0,1,1,3,0,3,3,0,no
3,1,0,0,0,0,1,1,3,0,3,3,0,no
3,1,0,0,0,0,1,1,3,0,3,3,0,no
3,1,0,0,0,0,1,1,3,0,3,3,0,no
3,1,0,0,0,0,1,1,3,0,3,3,0,no
3,1,0,0,0,0,1,1,3,0,3,3,0,no
3,1,0,0,0,0,1,1,3,0,3,3,0,no
3,0,0,0,0,0,1,1,3,0,3,3,0,no
3,1,0,0,0,0,1,1,3,0,3,3,0,no
3,0,0,0,0,0,1,1,3,0,3,3,0,no
3,1,0,0,0,0,1,1,3,0,3,3,0,no
3,1,0,0,0,0,1,1,3,0,3,3,0,no
3,1,0,0,0,0,1,1,3,0,3,3,0,no
3,0,0,0,0,0,1,1,3,0,3,3,0,no
3,1,0,0,0,0,1,1,3,0,3,3,0,no
5,0,1,1,1,0,1,1,5,0,5,5,0,no
7,2,2,1,2,0,1,1,7,0,7,7,0,no
7,2,2,1,2,0,1,1,7,0,7,7,0,no
7,2,2,1,2,0,1,1,7,0,7,7,0,no
7,4,2,1,2,0,1,1,7,0,7,7,0,no
7,2,2,1,2,0,1,1,7,0,7,7,0,no
7,2,2,1,2,0,1,1,7,0,7,7,0,no
7,2,2,1,2,0,1,1,7,0,7,7,0,no
7,2,2,1,2,0,1,1,7,0,7,7,0,no
7,2,2,1,2,0,1,1,7,0,7,7,0,no
7,2,2,1,2,0,1,1,7,0,7,7,0,no
7,2,2,1,2,0,1,1,7,0,7,7,0,no
7,2,2,1,2,0,1,1,7,0,7,7,0,no
28,2,3,2,3,4,1,1,28,0,28,28,0,no
7,1,0,0,0,0,1,1,7,0,7,7,0,no
29,4,10,1,10,0,1,1,29,0,29,29,0,no
29,6,9,1,7,1,1,1,29,0,29,29,0,no
3,0,0,0,0,0,1,1,3,0,3,3,0,no
4,1,1,1,1,0,1,1,4,0,4,4,0,no
2,0,0,0,0,0,1,1,2,0,2,2,0,no
4,0,0,0,0,0,1,1,4,0,4,4,0,no
6,3,1,1,0,0,1,1,6,0,6,6,0,no
8,0,1,1,0,1,1,1,8,0,8,8,0,no
3,0,0,0,0,0,1,1,3,0,3,3,0,no
3,2,0,0,0,0,1,1,3,0,3,3,0,no
4,1,0,0,0,0,1,1,4,0,4,4,0,no
3,2,0,0,0,0,1,1,3,0,3,3,0,no
4,1,0,0,0,0,1,1,4,0,4,4,0,no
3,2,0,0,0,0,1,1,3,0,3,3,0,no
4,1,0,0,0,0,1,1,4,0,4,4,0,no
3,2,0,0,0,0,1,1,3,0,3,3,0,no
4,1,0,0,0,0,1,1,4,0,4,4,0,no
3,2,0,0,0,0,1,1,3,0,3,3,0,no
4,1,0,0,0,0,1,1,4,0,4,4,0,no
3,0,0,0,0,0,1,1,3,0,3,3,0,no
3,0,0,0,0,0,1,1,3,0,3,3,0,no
3,0,0,0,0,0,1,1,3,0,3,3,0,no
3,0,0,0,0,0,1,1,3,0,3,3,0,no
3,0,0,0,0,0,1,1,3,0,3,3,0,no
3,0,0,0,0,0,1,1,3,0,3,3,0,no
3,0,0,0,0,0,1,1,3,0,3,3,0,no
3,0,0,0,0,0,1,1,3,0,3,3,0,no
3,0,0,0,0,0,1,1,3,0,3,3,0,no
3,0,0,0,0,0,1,1,3,0,3,3,0,no
3,0,0,0,0,0,1,1,3,0,3,3,0,no
5,0,1,1,1,0,1,1,5,0,5,5,0,no
3,2,0,0,0,0,1,1,3,0,3,3,0,no
4,1,0,0,0,0,1,1,4,0,4,4,0,no
4,1,0,0,0,0,1,1,4,0,4,4,0,no
3,0,0,0,0,0,1,1,3,0,3,3,0,no
35,1,15,2,14,1,1,1,35,0,35,35,0,no
3,0,0,0,0,0,1,1,3,0,3,3,0,no
3,2,0,0,0,0,1,1,3,0,3,3,0,no
4,1,0,0,0,0,1,1,4,0,4,4,0,no
3,0,0,0,0,0,1,1,3,0,3,3,0,no
3,2,0,0,0,0,1,1,3,0,3,3,0,no
4,1,0,0,0,0,1,1,4,0,4,4,0,no
3,0,0,0,0,0,1,1,3,0,3,3,0,no
11,0,3,1,4,1,1,1,11,0,11,11,0,no
3,0,0,0,0,0,1,1,3,0,3,3,0,no
33,1,11,3,8,3,1,1,33,0,33,33,0,no
5,1,1,1,1,0,1,1,5,0,5,5,0,no
2,0,0,0,0,0,1,1,2,0,2,2,0,no
8,2,2,1,2,0,1,1,8,0,8,8,0,no
8,2,2,1,2,0,1,1,8,0,8,8,0,no
8,2,2,1,2,0,1,1,8,0,8,8,0,no
8,2,2,1,2,0,1,1,8,0,8,8,0,no
8,2,2,1,2,0,1,1,8,0,8,8,0,no
10,1,1,1,0,0,1,1,10,0,10,10,0,no
3,1,0,0,0,0,1,1,3,0,3,3,0,no
5,1,0,0,0,0,1,1,5,0,5,5,0,no
10,1,1,1,0,0,1,1,10,0,10,10,0,no
10,1,1,1,0,0,1,1,10,0,10,10,0,no
5,1,1,1,1,0,1,1,5,0,5,5,0,no
8,1,1,1,0,0,1,1,8,0,8,8,0,no
5,1,0,0,0,0,1,1,5,0,5,5,0,no
4,1,0,0,0,0,1,1,4,0,4,4,0,no
10,1,1,1,0,0,1,1,10,0,10,10,0,no
4,1,0,0,0,0,1,1,4,0,4,4,0,no
10,1,1,1,0,0,1,1,10,0,10,10,0,no
8,2,2,1,2,0,1,1,8,0,8,8,0,no
12,2,3,1,2,0,1,1,12,0,12,12,0,no
8,2,2,1,2,0,1,1,8,0,8,8,0,no
8,2,2,1,2,0,1,1,8,0,8,8,0,no
22,0,0,0,0,1,1,1,22,0,22,22,0,no
9,1,3,1,3,0,1,1,9,0,9,9,0,no
9,1,3,1,3,0,1,1,9,0,9,9,0,no
5,1,1,1,1,0,1,1,5,0,5,5,0,no
7,1,2,1,2,0,1,1,7,0,7,7,0,no
11,1,4,1,4,0,1,1,11,0,11,11,0,no
17,1,7,1,7,0,1,1,17,0,17,17,0,no
9,1,3,1,3,0,1,1,9,0,9,9,0,no
13,1,5,1,5,0,1,1,13,0,13,13,0,no
17,1,7,1,7,0,1,1,17,0,17,17,0,no
15,1,6,1,6,0,1,1,15,0,15,15,0,no
11,1,4,1,4,0,1,1,11,0,11,11,0,no
7,1,2,1,2,0,1,1,7,0,7,7,0,no
13,1,2,2,1,1,1,1,13,0,13,13,0,no
5,4,0,0,0,1,1,1,5,0,5,5,0,no
21,2,6,1,0,0,1,1,21,0,21,21,0,no
18,2,5,1,0,0,1,1,18,0,18,18,0,no
22,1,3,3,1,4,1,1,22,0,22,22,0,no
44,1,7,3,4,11,1,1,44,0,44,44,0,no
3,1,0,0,0,0,1,1,3,0,3,3,0,no
14,1,1,2,1,2,1,1,14,0,14,14,0,no
23,5,8,1,1,3,1,1,23,0,23,23,0,no
3,1,0,0,1,0,1,1,3,0,3,3,0,no
3,0,0,0,0,0,1,1,3,0,3,3,0,no
8,2,1,1,0,0,1,1,8,0,8,8,0,no
5,4,0,0,0,0,1,1,5,0,5,5,0,no
11,6,2,1,1,1,1,1,11,0,11,11,0,no
5,2,0,0,0,0,1,1,5,0,5,5,0,no
5,0,0,0,0,0,1,1,5,0,5,5,0,no
21,1,2,1,3,5,1,1,21,0,21,21,0,no
3,3,0,0,0,0,1,1,3,0,3,3,0,no
13,0,2,2,2,2,1,1,13,0,13,13,0,no
3,0,0,0,0,0,1,1,3,0,3,3,0,no
3,0,0,0,0,0,1,1,3,0,3,3,0,no
3,0,0,0,0,0,1,1,3,0,3,3,0,no
5,0,1,1,1,0,1,1,5,0,5,5,0,no
5,1,1,1,1,0,1,1,5,0,5,5,0,no
4,1,0,0,0,0,1,1,4,0,4,4,0,no
13,6,1,1,1,2,1,1,13,0,13,13,0,no
17,4,2,2,1,1,1,1,17,0,17,17,0,no
25,2,4,3,2,4,1,1,25,0,25,25,0,no
6,0,0,0,0,0,1,1,6,0,6,6,0,no
3,3,0,0,0,0,1,1,3,0,3,3,0,no
13,0,1,1,1,3,1,1,13,0,13,13,0,no
3,0,0,0,0,0,1,1,3,0,3,3,0,no
8,0,1,1,1,2,1,1,8,0,8,8,0,no
3,0,0,0,0,0,1,1,3,0,3,3,0,no
11,0,2,1,2,1,1,1,11,0,11,11,0,no
11,0,2,1,2,1,1,1,11,0,11,11,0,no
3,1,0,0,0,0,1,1,3,0,3,3,0,no
11,0,2,1,2,1,1,1,11,0,11,11,0,no
11,0,2,1,2,1,1,1,11,0,11,11,0,no
11,0,2,1,2,1,1,1,11,0,11,11,0,no
11,0,2,1,2,1,1,1,11,0,11,11,0,no
11,0,2,1,2,1,1,1,11,0,11,11,0,no
11,0,2,1,2,1,1,1,11,0,11,11,0,no
11,0,2,1,2,1,1,1,11,0,11,11,0,no
11,0,2,1,2,1,1,1,11,0,11,11,0,no
14,0,2,1,2,2,1,1,14,0,14,14,0,no
11,1,2,1,2,1,1,1,11,0,11,11,0,no
11,1,2,1,2,1,1,1,11,0,11,11,0,no
11,1,2,1,2,1,1,1,11,0,11,11,0,no
11,3,2,1,2,1,1,1,11,0,11,11,0,no
11,1,2,1,2,1,1,1,11,0,11,11,0,no
11,1,2,1,2,1,1,1,11,0,11,11,0,no
11,1,2,1,2,1,1,1,11,0,11,11,0,no
11,1,2,1,2,1,1,1,11,0,11,11,0,no
11,1,2,1,2,1,1,1,11,0,11,11,0,no
11,1,2,1,2,1,1,1,11,0,11,11,0,no
11,1,2,1,2,1,1,1,11,0,11,11,0,no
11,1,2,1,2,1,1,1,11,0,11,11,0,no
4,1,0,0,0,0,1,1,4,0,4,4,0,no
3,0,0,0,0,0,1,1,3,0,3,3,0,no
12,0,1,2,1,3,1,1,12,0,12,12,0,no
12,0,1,2,1,3,1,1,12,0,12,12,0,no
12,0,1,2,1,3,1,1,12,0,12,12,0,no
12,0,1,2,1,3,1,1,12,0,12,12,0,no
12,0,1,2,1,3,1,1,12,0,12,12,0,no
12,0,1,2,1,3,1,1,12,0,12,12,0,no
12,0,1,2,1,3,1,1,12,0,12,12,0,no
13,0,3,2,5,1,1,1,13,0,13,13,0,no
3,0,0,0,0,0,1,1,3,0,3,3,0,no
12,0,1,2,1,3,1,1,12,0,12,12,0,no
12,0,1,2,1,3,1,1,12,0,12,12,0,no
3,1,0,0,0,0,1,1,3,0,3,3,0,no
10,0,1,1,1,1,1,1,10,0,10,10,0,no
18,1,3,2,3,1,1,1,18,0,18,18,0,no
10,1,1,1,1,0,1,1,10,0,10,10,0,no
3,1,0,0,0,0,1,1,3,0,3,3,0,no
3,1,0,0,0,0,1,1,3,0,3,3,0,no
3,1,0,0,0,0,1,1,3,0,3,3,0,no
5,3,0,0,0,1,1,1,5,0,5,5,0,no
3,1,0,0,0,0,1,1,3,0,3,3,0,no
3,1,0,0,0,0,1,1,3,0,3,3,0,no
3,1,0,0,0,0,1,1,3,0,3,3,0,no
3,1,0,0,0,0,1,1,3,0,3,3,0,no
3,1,0,0,0,0,1,1,3,0,3,3,0,no
25,1,10,10,0,0,1,1,25,0,25,25,0,no
3,1,0,0,0,0,1,1,3,0,3,3,0,no
3,1,0,0,0,0,1,1,3,0,3,3,0,no
4,0,1,1,1,0,1,1,4,0,4,4,0,no
4,1,0,0,0,0,1,1,4,0,4,4,0,no
5,6,1,0,0,0,1,1,5,0,5,5,0,no
5,2,0,0,0,0,1,1,5,0,5,5,0,no
5,4,0,0,0,0,1,1,5,0,5,5,0,no
8,2,1,1,0,0,1,1,8,0,8,8,0,no
5,0,0,0,0,0,1,1,5,0,5,5,0,no
3,3,0,0,0,0,1,1,3,0,3,3,0,no
7,0,1,1,1,1,1,1,7,0,7,7,0,no
3,0,0,0,0,0,1,1,3,0,3,3,0,no
3,0,0,0,0,0,1,1,3,0,3,3,0,no
3,0,0,0,0,0,1,1,3,0,3,3,0,no
5,0,1,1,1,0,1,1,5,0,5,5,0,no
5,1,1,1,1,0,1,1,5,0,5,5,0,no
9,0,0,0,0,1,1,1,9,0,9,9,0,no
2,0,0,0,0,0,1,1,2,0,2,2,0,no
3,0,0,0,0,0,1,1,3,0,3,3,0,no
2,1,0,0,1,0,1,1,2,0,2,2,0,no
6,1,0,0,3,0,1,1,6,0,6,6,0,no
3,1,0,0,0,0,1,1,3,0,3,3,0,no
2,1,0,0,1,0,1,1,2,0,2,2,0,no
3,0,0,0,0,0,1,1,3,0,3,3,0,no
3,0,0,0,0,0,1,1,3,0,3,3,0,no
3,0,0,0,0,0,1,1,3,0,3,3,0,no
3,0,0,0,0,0,1,1,3,0,3,3,0,no
3,0,0,0,0,0,1,1,3,0,3,3,0,no
3,0,0,0,2,0,1,1,3,0,3,3,0,no
3,0,0,0,0,0,1,1,3,0,3,3,0,no
3,0,0,0,0,0,1,1,3,0,3,3,0,no
3,0,0,0,0,0,1,1,3,0,3,3,0,no
3,0,0,0,0,0,1,1,3,0,3,3,0,no
39,0,11,1,11,1,1,1,39,0,39,39,0,no
3,0,0,0,0,0,1,1,3,0,3,3,0,no
13,0,2,2,1,3,1,1,13,0,13,13,0,no
10,0,1,1,1,2,1,1,10,0,10,10,0,no
3,0,0,0,1,0,1,1,3,0,3,3,0,no
3,0,0,0,1,0,1,1,3,0,3,3,0,no
3,0,0,0,1,0,1,1,3,0,3,3,0,no
3,0,0,0,1,0,1,1,3,0,3,3,0,no
3,0,0,0,1,0,1,1,3,0,3,3,0,no
3,0,0,0,1,0,1,1,3,0,3,3,0,no
3,0,0,0,1,0,1,1,3,0,3,3,0,no
3,0,0,0,1,0,1,1,3,0,3,3,0,no
3,0,0,0,1,0,1,1,3,0,3,3,0,no
3,0,0,0,1,0,1,1,3,0,3,3,0,no
3,0,0,0,1,0,1,1,3,0,3,3,0,no
12,0,0,0,1,0,1,1,12,0,12,12,0,no
3,0,0,0,1,0,1,1,3,0,3,3,0,no
11,0,2,1,2,1,1,1,11,0,11,11,0,no
3,0,0,0,0,0,1,1,3,0,3,3,0,no
3,1,0,0,1,0,1,1,3,0,3,3,0,no
3,0,0,0,0,0,1,1,3,0,3,3,0,no
4,1,0,0,2,1,1,1,4,0,4,4,0,no
8,1,1,1,1,1,1,1,8,0,8,8,0,no
8,2,1,1,1,1,1,1,8,0,8,8,0,no
3,1,0,0,1,0,1,1,3,0,3,3,0,no
3,2,0,0,1,0,1,1,3,0,3,3,0,no
3,1,0,0,1,0,1,1,3,0,3,3,0,no
3,2,0,0,1,0,1,1,3,0,3,3,0,no
3,1,0,0,1,0,1,1,3,0,3,3,0,no
3,2,0,0,1,0,1,1,3,0,3,3,0,no
3,1,0,0,1,0,1,1,3,0,3,3,0,no
3,2,0,0,1,0,1,1,3,0,3,3,0,no
3,0,0,0,0,0,1,1,3,0,3,3,0,no
3,0,0,0,2,0,1,1,3,0,3,3,0,no
34,1,10,1,10,0,1,1,34,0,34,34,0,no
3,0,0,0,0,0,1,1,3,0,3,3,0,no
4,1,0,0,0,0,1,1,4,0,4,4,0,no
7,0,1,1,2,1,1,1,7,0,7,7,0,no
7,0,1,1,2,1,1,1,7,0,7,7,0,no
48,0,10,1,15,3,1,1,48,0,48,48,0,no
24,0,0,0,11,0,1,1,24,0,24,24,0,no
6,0,0,0,1,0,1,1,6,0,6,6,0,no
6,0,0,0,1,0,1,1,6,0,6,6,0,no
6,0,0,0,1,0,1,1,6,0,6,6,0,no
6,0,0,0,1,0,1,1,6,0,6,6,0,no
6,0,0,0,1,0,1,1,6,0,6,6,0,no
6,0,0,0,1,0,1,1,6,0,6,6,0,no
6,0,0,0,1,0,1,1,6,0,6,6,0,no
6,0,0,0,1,0,1,1,6,0,6,6,0,no
6,0,0,0,1,0,1,1,6,0,6,6,0,no
6,0,0,0,2,0,1,1,6,0,6,6,0,no
3,0,0,0,1,0,1,1,3,0,3,3,0,no
3,0,0,0,0,0,1,1,3,0,3,3,0,no
3,0,0,0,0,0,1,1,3,0,3,3,0,no
3,0,0,0,0,0,1,1,3,0,3,3,0,no
3,0,0,0,0,0,1,1,3,0,3,3,0,no
3,0,0,0,2,0,1,1,3,0,3,3,0,no
3,0,0,0,2,0,1,1,3,0,3,3,0,no
3,0,0,0,1,0,1,1,3,0,3,3,0,no
3,0,0,0,0,0,1,1,3,0,3,3,0,no
3,0,0,0,0,0,1,1,3,0,3,3,0,no
3,0,0,0,0,0,1,1,3,0,3,3,0,no
3,0,0,0,0,0,1,1,3,0,3,3,0,no
3,0,0,0,0,0,1,1,3,0,3,3,0,no
10,0,1,1,1,2,1,1,10,0,10,10,0,no
3,0,0,0,1,0,1,1,3,0,3,3,0,no
3,0,0,0,1,0,1,1,3,0,3,3,0,no
3,0,0,0,1,0,1,1,3,0,3,3,0,no
3,0,0,0,1,0,1,1,3,0,3,3,0,no
3,0,0,0,1,0,1,1,3,0,3,3,0,no
3,0,0,0,1,0,1,1,3,0,3,3,0,no
3,0,0,0,1,0,1,1,3,0,3,3,0,no
3,0,0,0,1,0,1,1,3,0,3,3,0,no
3,0,0,0,1,0,1,1,3,0,3,3,0,no
3,0,0,0,1,0,1,1,3,0,3,3,0,no
3,0,0,0,1,0,1,1,3,0,3,3,0,no
3,0,0,0,1,0,1,1,3,0,3,3,0,no
6,0,1,1,2,0,1,1,6,0,6,6,0,no
4,0,1,1,1,0,1,1,4,0,4,4,0,no
87,2,15,3,3,4,1,1,87,0,87,87,0,no
8,1,1,1,2,0,1,1,8,0,8,8,0,no
36,1,11,1,3,0,1,1,36,0,36,36,0,no
6,1,0,0,0,0,1,1,6,0,6,6,0,no
6,1,0,0,0,0,1,1,6,0,6,6,0,no
9,1,1,1,0,0,1,1,9,0,9,9,0,no
6,1,0,0,0,0,1,1,6,0,6,6,0,no
6,1,0,0,0,0,1,1,6,0,6,6,0,no
6,1,0,0,0,0,1,1,6,0,6,6,0,no
6,1,0,0,0,0,1,1,6,0,6,6,0,no
6,1,0,0,0,0,1,1,6,0,6,6,0,no
9,1,1,1,0,0,1,1,9,0,9,9,0,no
5,1,0,0,0,0,1,1,5,0,5,5,0,no
9,1,1,1,1,0,1,1,9,0,9,9,0,no
4,2,0,0,1,0,1,1,4,0,4,4,0,no
3,0,0,0,1,0,1,1,3,0,3,3,0,no
3,0,0,0,0,0,1,1,3,0,3,3,0,no
3,0,0,0,0,0,1,1,3,0,3,3,0,no
3,0,0,0,0,0,1,1,3,0,3,3,0,no
3,0,0,0,0,0,1,1,3,0,3,3,0,no
6,1,1,1,1,0,1,1,6,0,6,6,0,no
24,1,10,1,0,0,1,1,24,0,24,24,0,no
3,1,0,0,0,0,1,1,3,0,3,3,0,no
0,0,0,0,0,0,1,1,0,0,0,0,0,no
0,0,0,0,0,0,1,1,0,0,0,0,0,no
0,0,0,0,0,0,1,1,0,0,0,0,0,no
0,0,0,0,0,0,1,1,0,0,0,0,0,no
0,0,0,0,0,0,1,1,0,0,0,0,0,no
0,0,0,0,0,0,1,1,0,0,0,0,0,no
0,0,0,0,0,0,1,1,0,0,0,0,0,no
0,0,0,0,0,0,1,1,0,0,0,0,0,no
0,0,0,0,0,0,1,1,0,0,0,0,0,no
0,0,0,0,1,0,1,1,0,0,0,0,0,no
0,0,0,0,0,0,1,1,0,0,0,0,0,no
0,0,0,0,0,0,1,1,0,0,0,0,0,no
0,0,0,0,0,0,1,1,0,0,0,0,0,no
0,0,0,0,0,0,1,1,0,0,0,0,0,no
0,0,0,0,0,0,1,1,0,0,0,0,0,no
0,0,0,0,0,0,1,1,0,0,0,0,0,no
0,0,0,0,0,0,1,1,0,0,0,0,0,no
0,0,0,0,0,0,1,1,0,0,0,0,0,no
0,0,0,0,0,0,1,1,0,0,0,0,0,no
0,0,0,0,0,0,1,1,0,0,0,0,0,no
4,2,0,0,1,0,1,1,4,0,4,4,0,no
3,0,0,0,1,0,1,1,3,0,3,3,0,no
3,0,0,0,0,0,1,1,3,0,3,3,0,no
3,0,0,0,0,0,1,1,3,0,3,3,0,no
3,0,0,0,0,0,1,1,3,0,3,3,0,no
3,0,0,0,0,0,1,1,3,0,3,3,0,no
6,1,1,1,1,0,1,1,6,0,6,6,0,no
8,1,2,1,0,0,1,1,8,0,8,8,0,no
3,1,0,0,0,0,1,1,3,0,3,3,0,no
47,2,11,10,1,7,1,1,47,0,47,47,0,no
49,1,14,3,3,4,1,1,49,0,49,49,0,no
0,2,0,0,0,0,1,1,0,0,0,0,0,no
0,2,0,0,0,0,1,1,0,0,0,0,0,no
0,2,0,0,0,0,1,1,0,0,0,0,0,no
0,2,0,0,0,0,1,1,0,0,0,0,0,no
30,3,11,2,0,0,1,1,30,0,30,30,0,no
3,0,0,0,0,0,1,1,3,0,3,3,0,no
5,2,1,1,1,0,1,1,5,0,5,5,0,no
5,2,1,1,1,0,1,1,5,0,5,5,0,no
5,2,1,1,1,0,1,1,5,0,5,5,0,no
5,2,1,1,1,0,1,1,5,0,5,5,0,no
7,2,2,1,2,0,1,1,7,0,7,7,0,no
7,2,2,1,2,0,1,1,7,0,7,7,0,no
7,2,2,1,2,0,1,1,7,0,7,7,0,no
7,2,2,1,2,0,1,1,7,0,7,7,0,no
5,2,1,1,1,0,1,1,5,0,5,5,0,no
5,2,1,1,1,0,1,1,5,0,5,5,0,no
5,2,1,1,1,0,1,1,5,0,5,5,0,no
5,2,1,1,1,0,1,1,5,0,5,5,0,no
5,2,1,1,1,0,1,1,5,0,5,5,0,no
5,2,1,1,1,0,1,1,5,0,5,5,0,no
5,2,1,1,1,0,1,1,5,0,5,5,0,no
5,2,1,1,1,0,1,1,5,0,5,5,0,no
13,1,3,1,4,3,1,1,13,0,13,13,0,no
0,3,0,0,0,0,1,1,0,0,0,0,0,no
3,0,0,0,0,0,1,1,3,0,3,3,0,no
0,1,0,0,1,0,1,1,0,0,0,0,0,no
5,2,0,0,0,0,1,1,5,0,5,5,0,no
5,2,0,0,0,0,1,1,5,0,5,5,0,no
5,2,0,0,0,0,1,1,5,0,5,5,0,no
6,2,1,1,1,0,1,1,6,0,6,6,0,no
5,2,0,0,0,0,1,1,5,0,5,5,0,no
5,2,0,0,0,0,1,1,5,0,5,5,0,no
5,2,0,0,0,0,1,1,5,0,5,5,0,no
5,2,0,0,0,0,1,1,5,0,5,5,0,no
5,2,0,0,0,0,1,1,5,0,5,5,0,no
5,2,0,0,0,0,1,1,5,0,5,5,0,no
5,2,0,0,0,0,1,1,5,0,5,5,0,no
5,2,0,0,0,0,1,1,5,0,5,5,0,no
5,2,0,0,0,0,1,1,5,0,5,5,0,no
5,2,0,0,0,0,1,1,5,0,5,5,0,no
5,2,0,0,0,0,1,1,5,0,5,5,0,no
5,2,0,0,0,0,1,1,5,0,5,5,0,no
5,2,0,0,0,0,1,1,5,0,5,5,0,no
5,2,0,0,0,0,1,1,5,0,5,5,0,no
5,2,0,0,0,0,1,1,5,0,5,5,0,no
6,2,1,1,1,0,1,1,6,0,6,6,0,no
5,2,0,0,0,0,1,1,5,0,5,5,0,no
3,2,0,0,0,0,1,1,3,0,3,3,0,no
0,2,0,0,0,0,1,1,0,0,0,0,0,no
6,3,1,1,0,0,1,1,6,0,6,6,0,no
3,0,0,0,0,0,1,1,3,0,3,3,0,no
6,2,2,1,1,0,1,1,6,0,6,6,0,no
6,2,2,1,1,0,1,1,6,0,6,6,0,no
5,1,1,1,1,0,1,1,5,0,5,5,0,no
5,0,1,1,1,0,1,1,5,0,5,5,0,no
3,0,0,0,0,0,1,1,3,0,3,3,0,no
5,0,1,1,1,0,1,1,5,0,5,5,0,no
3,0,0,0,0,0,1,1,3,0,3,3,0,no
7,1,2,1,2,0,1,1,7,0,7,7,0,no
7,1,2,1,2,0,1,1,7,0,7,7,0,no
8,0,0,0,0,1,1,1,8,0,8,8,0,no
3,1,0,0,0,0,1,1,3,0,3,3,0,no
53,3,13,2,0,1,1,1,53,0,53,53,0,no
12,1,2,1,1,4,1,1,12,0,12,12,0,no
13,3,3,1,0,2,1,1,13,0,13,13,0,no
13,3,3,1,0,2,1,1,13,0,13,13,0,no
13,3,3,1,0,2,1,1,13,0,13,13,0,no
7,0,0,0,0,1,1,1,7,0,7,7,0,no
3,1,0,0,0,0,1,1,3,0,3,3,0,no
15,2,4,1,1,1,1,1,15,0,15,15,0,no
11,1,2,1,3,3,1,1,11,0,11,11,0,no
7,0,0,0,0,1,1,1,7,0,7,7,0,no
3,1,0,0,0,0,1,1,3,0,3,3,0,no
9,1,2,1,2,2,1,1,9,0,9,9,0,no
6,1,1,1,1,1,1,1,6,0,6,6,0,no
7,0,0,0,0,1,1,1,7,0,7,7,0,no
12,3,2,1,1,0,1,1,12,0,12,12,0,no
16,1,4,1,1,2,1,1,16,0,16,16,0,no
10,1,2,1,3,2,1,1,10,0,10,10,0,no
11,2,1,1,1,3,1,1,11,0,11,11,0,no
32,2,8,3,4,6,1,1,32,0,32,32,0,no
28,1,7,3,4,6,1,1,28,0,28,28,0,no
8,0,0,0,0,1,1,1,8,0,8,8,0,no
3,1,0,0,0,0,1,1,3,0,3,3,0,no
34,1,10,2,1,2,1,1,34,0,34,34,0,no
7,1,1,1,2,1,1,1,7,0,7,7,0,no
7,0,0,0,0,1,1,1,7,0,7,7,0,no
8,1,0,0,0,0,1,1,8,0,8,8,0,no
8,1,0,0,0,0,1,1,8,0,8,8,0,no
8,1,0,0,0,0,1,1,8,0,8,8,0,no
8,1,0,0,0,0,1,1,8,0,8,8,0,no
8,1,0,0,0,0,1,1,8,0,8,8,0,no
7,1,2,1,2,0,1,1,7,0,7,7,0,no
5,0,1,1,1,0,1,1,5,0,5,5,0,no
5,0,1,1,1,0,1,1,5,0,5,5,0,no
5,0,1,1,1,0,1,1,5,0,5,5,0,no
5,0,1,1,1,0,1,1,5,0,5,5,0,no
5,0,1,1,1,0,1,1,5,0,5,5,0,no
16,0,7,1,0,0,1,1,16,0,16,16,0,no
16,0,6,1,0,0,1,1,16,0,16,16,0,no
8,0,2,1,1,0,1,1,8,0,8,8,0,no
20,0,7,2,0,0,1,1,20,0,20,20,0,no
4,1,0,0,0,0,1,1,4,0,4,4,0,no
3,0,0,0,0,0,1,1,3,0,3,3,0,no
3,0,0,0,0,0,1,1,3,0,3,3,0,no
3,0,0,0,0,0,1,1,3,0,3,3,0,no
3,1,0,0,0,0,1,1,3,0,3,3,0,no
2,0,0,0,1,0,1,1,2,0,2,2,0,no
3,1,0,0,0,0,1,1,3,0,3,3,0,no
3,2,0,0,0,0,1,1,3,0,3,3,0,no
3,1,0,0,0,0,1,1,3,0,3,3,0,no
15,3,4,1,3,3,1,1,15,0,15,15,0,no
8,2,0,0,0,0,1,1,8,0,8,8,0,no
8,2,0,0,0,0,1,1,8,0,8,8,0,no
8,2,0,0,0,0,1,1,8,0,8,8,0,no
6,2,1,1,1,0,1,1,6,0,6,6,0,no
8,2,0,0,0,0,1,1,8,0,8,8,0,no
8,2,0,0,0,0,1,1,8,0,8,8,0,no
8,2,0,0,0,0,1,1,8,0,8,8,0,no
8,2,0,0,0,0,1,1,8,0,8,8,0,no
8,2,0,0,0,0,1,1,8,0,8,8,0,no
8,2,0,0,0,0,1,1,8,0,8,8,0,no
8,2,0,0,0,0,1,1,8,0,8,8,0,no
8,2,0,0,0,0,1,1,8,0,8,8,0,no
8,2,0,0,0,0,1,1,8,0,8,8,0,no
8,2,0,0,0,0,1,1,8,0,8,8,0,no
8,2,0,0,0,0,1,1,8,0,8,8,0,no
8,2,0,0,0,0,1,1,8,0,8,8,0,no
8,2,0,0,0,0,1,1,8,0,8,8,0,no
8,2,0,0,0,0,1,1,8,0,8,8,0,no
8,2,0,0,0,0,1,1,8,0,8,8,0,no
6,2,1,1,1,0,1,1,6,0,6,6,0,no
8,2,0,0,0,0,1,1,8,0,8,8,0,no
8,2,0,0,0,0,1,1,8,0,8,8,0,no
10,1,2,1,3,2,1,1,10,0,10,10,0,no
0,2,0,0,0,0,1,1,0,0,0,0,0,no
3,0,0,0,0,0,1,1,3,0,3,3,0,no
20,2,5,2,2,2,1,1,20,0,20,20,0,no
10,1,2,1,3,2,1,1,10,0,10,10,0,no
0,2,0,0,0,0,1,1,0,0,0,0,0,no
3,0,0,0,0,0,1,1,3,0,3,3,0,no
8,2,2,1,0,2,1,1,8,0,8,8,0,no
0,2,0,0,0,0,1,1,0,0,0,0,0,no
0,2,0,0,0,0,1,1,0,0,0,0,0,no
0,2,0,0,0,0,1,1,0,0,0,0,0,no
0,2,0,0,0,0,1,1,0,0,0,0,0,no
0,2,0,0,0,0,1,1,0,0,0,0,0,no
0,2,0,0,0,0,1,1,0,0,0,0,0,no
46,3,15,2,0,0,1,1,46,0,46,46,0,no
3,0,0,0,0,0,1,1,3,0,3,3,0,no
5,2,1,1,1,0,1,1,5,0,5,5,0,no
5,2,1,1,1,0,1,1,5,0,5,5,0,no
5,2,1,1,1,0,1,1,5,0,5,5,0,no
5,2,1,1,1,0,1,1,5,0,5,5,0,no
5,2,1,1,1,0,1,1,5,0,5,5,0,no
5,2,1,1,1,0,1,1,5,0,5,5,0,no
3,2,0,0,0,0,1,1,3,0,3,3,0,no
5,2,1,1,1,0,1,1,5,0,5,5,0,no
5,2,1,1,1,0,1,1,5,0,5,5,0,no
5,2,1,1,1,0,1,1,5,0,5,5,0,no
5,2,1,1,1,0,1,1,5,0,5,5,0,no
3,2,0,0,0,0,1,1,3,0,3,3,0,no
3,2,0,0,0,0,1,1,3,0,3,3,0,no
5,2,1,1,1,0,1,1,5,0,5,5,0,no
5,2,1,1,1,0,1,1,5,0,5,5,0,no
5,2,1,1,1,0,1,1,5,0,5,5,0,no
5,2,1,1,1,0,1,1,5,0,5,5,0,no
3,2,0,0,0,0,1,1,3,0,3,3,0,no
3,2,0,0,0,0,1,1,3,0,3,3,0,no
5,2,1,1,1,0,1,1,5,0,5,5,0,no
5,2,1,1,1,0,1,1,5,0,5,5,0,no
5,2,1,1,1,0,1,1,5,0,5,5,0,no
5,2,1,1,1,0,1,1,5,0,5,5,0,no
3,2,0,0,0,0,1,1,3,0,3,3,0,no
3,2,0,0,0,0,1,1,3,0,3,3,0,no
5,2,1,1,1,0,1,1,5,0,5,5,0,no
5,2,1,1,1,0,1,1,5,0,5,5,0,no
5,2,1,1,1,0,1,1,5,0,5,5,0,no
5,2,1,1,1,0,1,1,5,0,5,5,0,no
3,2,0,0,0,0,1,1,3,0,3,3,0,no
5,2,1,1,1,0,1,1,5,0,5,5,0,no
5,2,1,1,1,0,1,1,5,0,5,5,0,no
5,2,1,1,1,0,1,1,5,0,5,5,0,no
5,2,1,1,1,0,1,1,5,0,5,5,0,no
5,2,1,1,1,0,1,1,5,0,5,5,0,no
5,2,1,1,1,0,1,1,5,0,5,5,0,no
4,0,0,0,1,1,1,1,4,0,4,4,0,no
4,2,0,0,1,1,1,1,4,0,4,4,0,no
3,0,0,0,0,0,1,1,3,0,3,3,0,no
3,2,0,0,0,0,1,1,3,0,3,3,0,no
3,0,0,0,0,0,1,1,3,0,3,3,0,no
4,0,0,0,0,0,1,1,4,0,4,4,0,no
4,2,0,0,0,0,1,1,4,0,4,4,0,no
3,1,0,0,0,0,1,1,3,0,3,3,0,no
3,2,0,0,0,0,1,1,3,0,3,3,0,no
12,3,4,1,1,0,1,1,12,0,12,12,0,no
3,2,0,0,0,0,1,1,3,0,3,3,0,no
2,0,0,0,0,0,1,1,2,0,2,2,0,no
2,2,0,0,0,0,1,1,2,0,2,2,0,no
2,0,0,0,0,0,1,1,2,0,2,2,0,no
3,0,0,0,0,0,1,1,3,0,3,3,0,no
3,2,0,0,0,0,1,1,3,0,3,3,0,no
28,0,4,3,2,5,1,1,28,0,28,28,0,no
4,1,0,0,0,1,1,1,4,0,4,4,0,no
9,2,1,1,1,1,1,1,9,0,9,9,0,no
33,1,9,3,2,4,1,1,33,0,33,33,0,no
9,0,1,1,1,1,1,1,9,0,9,9,0,no
3,1,0,0,0,0,1,1,3,0,3,3,0,no
3,2,0,0,0,0,1,1,3,0,3,3,0,no
9,2,1,1,0,1,1,1,9,0,9,9,0,no
8,4,1,1,0,0,1,1,8,0,8,8,0,no
3,1,0,0,0,0,1,1,3,0,3,3,0,no
3,2,0,0,0,0,1,1,3,0,3,3,0,no
3,3,0,0,0,0,1,1,3,0,3,3,0,no
3,1,0,0,0,0,1,1,3,0,3,3,0,no
3,0,0,0,0,0,1,1,3,0,3,3,0,no
3,0,0,0,0,0,1,1,3,0,3,3,0,no
3,1,1,0,0,0,1,1,3,0,3,3,0,no
5,1,0,0,0,0,1,1,5,0,5,5,0,no
5,3,0,0,0,0,1,1,5,0,5,5,0,no
38,5,9,3,3,5,1,1,38,0,38,38,0,no
5,3,1,1,1,0,1,1,5,0,5,5,0,no
7,1,2,1,2,0,1,1,7,0,7,7,0,no
3,1,0,0,0,0,1,1,3,0,3,3,0,no
5,0,1,1,1,0,1,1,5,0,5,5,0,no
3,1,0,0,0,0,1,1,3,0,3,3,0,no
5,1,1,1,1,0,1,1,5,0,5,5,0,no
19,2,4,2,5,4,1,1,19,0,19,19,0,no
5,1,0,0,0,0,1,1,5,0,5,5,0,no
6,0,0,0,0,0,1,1,6,0,6,6,0,no
11,3,2,1,2,1,1,1,11,0,11,11,0,no
11,0,3,1,2,0,1,1,11,0,11,11,0,no
3,2,0,0,0,0,1,1,3,0,3,3,0,no
30,2,10,2,6,2,1,1,30,0,30,30,0,no
5,0,1,1,1,0,1,1,5,0,5,5,0,no
3,2,0,0,0,0,1,1,3,0,3,3,0,no
14,2,3,2,2,1,1,1,14,0,14,14,0,no
37,2,8,2,6,7,2,2,37,0,36,18.5,0,no
28,2,5,1,5,5,1,1,28,0,28,28,0,no
13,0,3,3,0,0,1,1,13,0,13,13,0,no
4,2,0,0,0,0,1,1,4,0,4,4,0,no
12,1,6,1,5,1,1,1,12,0,12,12,0,no
5,0,2,0,0,1,1,1,5,0,5,5,0,no
13,1,4,1,2,1,1,1,13,0,13,13,0,no
3,0,0,0,0,0,1,1,3,0,3,3,0,no
3,0,0,0,0,0,1,1,3,0,3,3,0,no
3,0,0,0,0,0,1,1,3,0,3,3,0,no
3,1,0,0,0,0,1,1,3,0,3,3,0,no
3,1,0,0,0,0,1,1,3,0,3,3,0,no
3,0,0,0,0,0,1,1,3,0,3,3,0,no
3,0,0,0,0,0,1,1,3,0,3,3,0,no
3,0,0,0,0,0,1,1,3,0,3,3,0,no
3,0,0,0,0,0,1,1,3,0,3,3,0,no
3,0,0,0,0,0,1,1,3,0,3,3,0,no
3,0,0,0,0,0,1,1,3,0,3,3,0,no
6,1,1,1,0,0,1,1,6,0,6,6,0,no
3,1,0,0,0,0,1,1,3,0,3,3,0,no
3,1,0,0,0,0,1,1,3,0,3,3,0,no
3,1,0,0,0,0,1,1,3,0,3,3,0,no
3,1,0,0,0,0,1,1,3,0,3,3,0,no
3,3,0,0,0,0,1,1,3,0,3,3,0,no
3,2,0,0,0,0,1,1,3,0,3,3,0,no
3,4,0,0,0,0,1,1,3,0,3,3,0,no
3,1,0,0,0,0,1,1,3,0,3,3,0,no
3,2,0,0,0,0,1,1,3,0,3,3,0,no
3,1,0,0,0,0,1,1,3,0,3,3,0,no
3,0,0,0,0,0,1,1,3,0,3,3,0,no
3,1,0,0,0,0,1,1,3,0,3,3,0,no
3,1,0,0,0,0,1,1,3,0,3,3,0,no
5,3,0,0,0,0,1,1,5,0,5,5,0,no
2,0,0,0,0,0,1,1,2,0,2,2,0,no
3,0,0,0,0,0,1,1,3,0,3,3,0,no
3,0,0,0,0,0,1,1,3,0,3,3,0,no
5,1,1,1,1,0,1,1,5,0,5,5,0,no
5,4,1,1,1,0,1,1,5,0,5,5,0,no
3,2,0,0,0,0,1,1,3,0,3,3,0,no
56,5,11,2,8,4,2,2,57,1,56,29,0,no
5,2,1,1,1,0,1,1,5,0,5,5,0,no
5,5,1,1,1,0,1,1,5,0,5,5,0,no
3,1,0,0,0,0,1,1,3,0,3,3,0,no
3,4,0,0,0,0,1,1,3,0,3,3,0,no
3,3,0,0,0,0,1,1,3,0,3,3,0,no
3,1,0,0,0,0,1,1,3,0,3,3,0,no
3,2,0,0,0,0,1,1,3,0,3,3,0,no
3,1,0,0,0,0,1,1,3,0,3,3,0,no
3,1,0,0,0,0,1,1,3,0,3,3,0,no
3,1,0,0,0,0,1,1,3,0,3,3,0,no
3,3,0,0,0,0,1,1,3,0,3,3,0,no
3,0,0,0,0,0,1,1,3,0,3,3,0,no
16,6,2,2,0,0,1,1,16,0,16,16,0,no
9,4,0,0,0,0,1,1,9,0,9,9,0,no
17,0,3,1,3,2,1,1,17,0,17,17,0,no
26,2,7,1,7,2,1,1,26,0,26,26,0,no
3,0,0,0,0,0,1,1,3,0,3,3,0,no
3,0,0,0,0,0,1,1,3,0,3,3,0,no
3,0,0,0,0,0,1,1,3,0,3,3,0,no
3,0,0,0,0,0,1,1,3,0,3,3,0,no
3,1,0,0,0,0,1,1,3,0,3,3,0,no
75,2,20,3,7,8,1,1,75,0,75,75,0,no
3,0,0,0,0,0,1,1,3,0,3,3,0,no
16,0,4,1,4,1,1,1,16,0,16,16,0,no
4,1,0,0,0,0,1,1,4,0,4,4,0,no
7,0,1,1,0,0,1,1,7,0,7,7,0,no
3,1,0,0,0,0,1,1,3,0,3,3,0,no
3,2,0,0,0,0,1,1,3,0,3,3,0,no
3,0,0,0,0,0,1,1,3,0,3,3,0,no
3,0,0,0,0,0,1,1,3,0,3,3,0,no
3,0,0,0,0,0,1,1,3,0,3,3,0,no
0,0,0,0,1,0,1,1,0,0,0,0,0,no
0,0,0,0,1,0,1,1,0,0,0,0,0,no
0,0,0,0,1,0,1,1,0,0,0,0,0,no
0,5,0,0,1,0,1,1,0,0,0,0,0,no
0,4,0,0,1,0,1,1,0,0,0,0,0,no
0,4,0,0,1,0,1,1,0,0,0,0,0,no
0,2,0,0,1,0,1,1,0,0,0,0,0,no
0,1,0,0,1,0,1,1,0,0,0,0,0,no
0,4,0,0,1,0,1,1,0,0,0,0,0,no
0,5,0,0,1,0,1,1,0,0,0,0,0,no
0,5,0,0,1,0,1,1,0,0,0,0,0,no
0,4,0,0,1,0,1,1,0,0,0,0,0,no
0,2,0,0,1,0,1,1,0,0,0,0,0,no
0,3,0,0,1,0,1,1,0,0,0,0,0,no
0,1,0,0,1,0,1,1,0,0,0,0,0,no
0,2,0,0,1,0,1,1,0,0,0,0,0,no
0,1,0,0,1,0,1,1,0,0,0,0,0,no
0,3,0,0,1,0,1,1,0,0,0,0,0,no
0,4,0,0,1,0,1,1,0,0,0,0,0,no
0,2,0,0,1,0,1,1,0,0,0,0,0,no
0,3,0,0,1,0,1,1,0,0,0,0,0,no
0,3,0,0,1,0,1,1,0,0,0,0,0,no
0,2,0,0,1,0,1,1,0,0,0,0,0,no
8,11,0,0,0,0,1,1,8,0,8,8,0,no
37,0,6,3,1,11,3,3,38,1,36,13,1,no
9,1,1,1,1,4,1,1,9,0,9,9,0,no
21,1,2,1,0,6,4,4,22,1,19,5.75,1,no
3,5,0,0,0,0,1,1,3,0,3,3,0,no
5,8,0,0,0,0,1,1,5,0,5,5,0,no
34,0,4,2,2,7,5,4,36,2,33,7.6,1,no
10,1,3,2,1,1,1,1,10,0,10,10,0,no
16,5,3,2,1,5,4,3,17,1,14,4.5,1,no
3,1,0,0,0,0,1,1,3,0,3,3,0,no
14,5,2,1,2,2,2,2,15,1,15,8,0,no
3,2,0,0,0,0,2,2,4,1,3,2.5,1,no
5,1,0,0,0,0,2,2,6,1,5,3.5,1,no
5,1,0,0,0,0,2,2,6,1,5,3.5,1,no
3,2,0,0,0,0,1,1,3,0,3,3,0,no
3,2,0,0,0,0,1,1,3,0,3,3,0,no
25,2,5,4,1,2,2,2,25,0,23,12.5,1,no
11,1,4,1,2,1,2,2,12,1,11,6.5,1,no
5,0,1,1,0,0,1,1,5,0,5,5,1,no
3,1,0,0,0,0,1,1,3,0,3,3,0,no
12,0,3,3,0,2,1,1,12,0,12,12,0,no
9,3,1,1,0,1,1,1,9,0,9,9,0,no
11,1,2,2,0,3,1,1,11,0,11,11,0,no
10,1,1,1,0,1,1,1,10,0,10,10,0,no
3,0,0,0,0,0,1,1,3,0,3,3,1,no
4,1,0,0,0,1,1,1,4,0,4,4,0,no
14,6,2,1,0,0,1,1,14,0,14,14,0,no
6,2,0,0,0,0,1,1,6,0,6,6,0,no
3,3,0,0,0,0,1,1,3,0,3,3,0,no
29,0,3,3,3,15,2,2,30,1,29,15.5,0,no
35,1,1,1,0,6,2,2,35,0,20,17.5,0,no
3,0,0,0,0,0,1,1,3,0,3,3,0,no
3,0,0,0,0,0,1,1,3,0,3,3,0,no
3,0,0,0,0,0,1,1,3,0,3,3,0,no
5,0,1,1,1,0,1,1,5,0,5,5,0,no
6,0,1,1,2,0,1,1,6,0,6,6,0,no
3,0,0,0,0,0,1,1,3,0,3,3,0,no
3,0,0,0,0,0,1,1,3,0,3,3,0,no
3,0,0,0,0,0,1,1,3,0,3,3,0,no
3,0,0,0,0,0,1,1,3,0,3,3,0,no
3,0,0,0,0,0,1,1,3,0,3,3,0,no
3,0,0,0,0,0,1,1,3,0,3,3,0,no
3,0,0,0,0,0,1,1,3,0,3,3,0,no
3,0,0,0,0,0,1,1,3,0,3,3,0,no
3,0,0,0,0,0,1,1,3,0,3,3,0,no
3,0,0,0,0,0,1,1,3,0,3,3,0,no
3,0,0,0,0,0,1,1,3,0,3,3,0,no
5,0,1,1,0,0,1,1,5,0,5,5,0,no
4,2,0,0,0,0,1,1,4,0,4,4,0,no
10,0,2,1,0,1,2,2,11,1,10,6,0,no
9,7,0,0,0,0,1,1,9,0,9,9,0,no
8,0,3,1,3,0,1,1,8,0,8,8,0,no
3,0,0,0,0,0,1,1,3,0,3,3,0,no
3,0,0,0,0,0,1,1,3,0,3,3,1,no
3,0,0,0,0,0,1,1,3,0,3,3,1,no
3,2,0,0,0,0,1,1,3,0,3,3,0,no
3,1,0,0,0,0,1,1,3,0,3,3,0,no
3,1,0,0,0,0,1,1,3,0,3,3,1,no
38,0,13,2,10,4,2,2,39,1,38,20,0,no
5,2,0,0,0,0,1,1,5,0,5,5,0,no
8,1,2,1,2,1,1,1,8,0,8,8,0,no
3,0,0,0,0,0,1,1,3,0,3,3,0,no
3,0,0,0,0,0,1,1,3,0,3,3,0,no
3,0,0,0,0,0,1,1,3,0,3,3,0,no
8,0,2,1,2,1,1,1,8,0,8,8,0,no
3,1,0,0,0,0,1,1,3,0,3,3,1,no
3,2,0,0,0,0,1,1,3,0,3,3,1,no
3,1,0,0,0,0,1,1,3,0,3,3,0,no
3,2,0,0,0,0,1,1,3,0,3,3,0,no
3,1,0,0,0,0,1,1,3,0,3,3,1,no
3,2,0,0,0,0,1,1,3,0,3,3,1,no
3,1,0,0,0,0,1,1,3,0,3,3,1,no
3,2,0,0,0,0,1,1,3,0,3,3,1,no
3,1,0,0,0,0,1,1,3,0,3,3,0,no
3,2,0,0,0,0,1,1,3,0,3,3,0,no
3,1,0,0,0,0,1,1,3,0,3,3,0,no
3,2,0,0,0,0,1,1,3,0,3,3,0,no
4,2,0,0,0,0,1,1,4,0,4,4,0,no
43,3,8,2,1,7,1,1,43,0,43,43,0,no
0,3,0,0,0,0,1,1,0,0,0,0,0,no
3,2,0,0,0,0,1,1,3,0,3,3,0,no
20,3,5,1,1,0,1,1,20,0,20,20,0,no
4,2,0,0,0,0,1,1,4,0,4,4,0,no
5,2,0,0,0,1,2,2,6,1,6,3.5,0,no
9,2,1,1,1,2,5,4,19,10,12,5.8,1,no
3,1,0,0,0,0,1,1,3,0,3,3,0,no
8,0,1,1,1,1,5,4,17,9,12,5.2,1,no
3,1,0,0,0,0,1,1,3,0,3,3,0,no
3,0,0,0,0,0,1,1,3,0,3,3,0,no
3,0,0,0,0,0,1,1,3,0,3,3,0,no
3,0,0,0,0,0,1,1,3,0,3,3,0,no
9,2,0,0,1,0,2,2,10,1,10,5.5,0,no
9,2,0,0,1,0,2,1,10,1,10,5.5,0,no
3,2,0,0,0,0,1,1,3,0,3,3,0,no
17,3,5,1,1,0,1,1,17,0,17,17,0,no
3,2,0,0,0,0,1,1,3,0,3,3,0,no
0,3,0,0,0,0,1,1,0,0,0,0,0,no
0,2,0,0,0,0,1,1,0,0,0,0,0,no
0,2,0,0,0,0,1,1,0,0,0,0,0,no
0,1,0,0,0,0,5,3,18,18,16,7.2,1,no
0,3,0,0,0,0,1,1,0,0,0,0,0,no
0,1,0,0,0,0,1,1,0,0,0,0,0,no
0,2,0,0,0,0,1,1,0,0,0,0,0,no
0,2,0,0,0,0,1,1,0,0,0,0,0,no
0,2,0,0,0,0,1,1,0,0,0,0,0,no
0,1,0,0,0,0,1,1,0,0,0,0,0,no
3,2,0,0,0,0,1,1,3,0,3,3,0,no
20,3,5,1,1,0,1,1,20,0,20,20,0,no
3,0,0,0,0,0,1,1,3,0,3,3,0,no
20,2,2,2,0,1,1,1,20,0,20,20,0,no
17,0,2,2,0,1,1,1,17,0,17,17,0,no
3,1,0,0,0,0,1,1,3,0,3,3,0,no
3,0,0,0,0,0,1,1,3,0,3,3,0,no
3,1,0,0,0,0,1,1,3,0,3,3,0,no
3,2,0,0,0,0,1,1,3,0,3,3,0,no
34,3,6,3,2,1,1,1,34,0,34,34,1,no
4,2,0,0,0,0,1,1,4,0,4,4,0,no
11,5,2,1,0,1,1,1,11,0,11,11,0,no
3,0,0,0,0,0,1,1,3,0,3,3,0,no
3,0,0,0,0,0,1,1,3,0,3,3,0,no
3,0,0,0,0,0,1,1,3,0,3,3,0,no
3,0,0,0,0,0,1,1,3,0,3,3,0,no
0,0,0,0,1,0,1,1,0,0,0,0,0,no
0,1,0,0,1,0,1,1,0,0,0,0,0,no
0,0,0,0,1,0,1,1,0,0,0,0,0,no
0,1,0,0,1,0,1,1,0,0,0,0,0,no
0,3,0,0,1,0,1,1,0,0,0,0,0,no
0,0,0,0,1,0,1,1,0,0,0,0,0,no
0,1,0,0,1,0,1,1,0,0,0,0,0,no
0,0,0,0,1,0,1,1,0,0,0,0,0,no
0,0,0,0,1,0,1,1,0,0,0,0,0,no
0,0,0,0,1,0,1,1,0,0,0,0,0,no
0,2,0,0,1,0,1,1,0,0,0,0,0,no
0,2,0,0,1,0,1,1,0,0,0,0,0,no
0,2,0,0,1,0,1,1,0,0,0,0,0,no
0,1,0,0,1,0,1,1,0,0,0,0,0,no
0,1,0,0,1,0,1,1,0,0,0,0,0,no
0,2,0,0,1,0,1,1,0,0,0,0,0,no
0,1,0,0,1,0,1,1,0,0,0,0,0,no
4,1,0,0,0,0,1,1,4,0,4,4,0,no
11,2,1,1,0,0,4,2,17,6,12,5.75,0,no
8,0,1,1,0,0,3,2,21,13,21,11.333333,1,no
3,1,0,0,0,0,1,1,3,0,3,3,0,no
3,2,0,0,0,0,1,1,3,0,3,3,0,no
3,0,0,0,0,0,1,1,3,0,3,3,0,no
3,0,0,0,0,0,1,1,3,0,3,3,0,no
3,0,0,0,0,0,1,1,3,0,3,3,0,no
3,0,0,0,0,0,1,1,3,0,3,3,0,no
3,1,0,0,0,0,1,1,3,0,3,3,0,no
3,1,0,0,0,0,2,2,4,1,4,2.5,0,no
3,4,0,0,0,0,4,3,21,18,17,9.75,0,no
3,4,0,0,0,0,2,2,4,1,3,2.5,0,no
7,4,1,1,0,1,3,2,22,15,20,12.333333,1,no
35,2,9,4,2,4,3,3,35,0,29,11.666667,0,no
3,1,0,0,0,0,1,1,3,0,3,3,0,no
3,2,0,0,0,0,1,1,3,0,3,3,0,no
7,2,1,1,0,0,1,1,7,0,7,7,0,no
4,1,0,0,0,0,3,2,5,1,4,2,0,no
3,1,0,0,0,0,2,1,4,1,3,2.5,0,no
3,4,0,0,0,0,4,4,27,24,25,12.75,0,no
17,6,4,2,0,3,4,2,21,4,15,6.25,1,no
4,5,0,0,0,1,2,2,4,0,3,2,0,no
3,5,0,0,0,0,1,1,3,0,3,3,0,no
7,6,1,1,0,0,3,2,9,2,7,3.666667,0,no
3,4,0,0,0,0,3,3,5,2,3,2.333333,0,no
3,5,0,0,0,0,3,3,17,14,16,10.333333,0,no
15,2,3,2,2,2,2,2,16,1,15,8.5,0,no
9,3,1,1,0,2,3,3,11,2,10,4.333333,1,no
10,4,1,1,1,1,4,2,29,19,25,12,1,no
16,5,1,1,0,0,2,2,17,1,16,9,0,no
3,1,0,0,1,0,1,1,3,0,3,3,0,no
5,2,0,0,0,2,2,2,5,0,3,2.5,0,no
6,2,1,1,5,0,1,1,6,0,6,6,0,no
3,1,0,0,0,0,2,1,4,1,3,2.5,0,no
5,3,0,0,0,1,4,3,23,18,20,10.25,1,no
9,4,1,1,0,1,2,1,16,7,16,11.5,0,no
5,2,0,0,0,1,6,4,27,22,20,8.166667,1,no
38,4,10,6,6,4,3,1,39,1,33,13.333333,1,no
4,3,0,0,0,1,2,2,4,0,3,2,0,no
3,3,0,0,0,0,1,1,3,0,3,3,0,no
11,4,2,1,0,0,2,1,12,1,11,6.5,0,no
3,2,0,0,0,0,1,1,3,0,3,3,0,no
12,3,2,1,0,0,2,2,13,1,12,7,0,no
3,2,0,0,0,0,3,3,5,2,3,2.333333,1,no
3,2,0,0,0,0,1,1,3,0,3,3,0,no
5,1,0,0,0,1,1,1,5,0,5,5,0,no
12,3,0,0,0,2,1,1,12,0,12,12,0,no
32,2,7,2,0,1,3,2,32,0,27,10.666667,0,no
5,1,0,0,0,1,1,1,5,0,5,5,0,no
13,1,1,1,0,2,1,1,13,0,13,13,0,no
5,1,0,0,0,1,1,1,5,0,5,5,0,no
3,1,0,0,0,0,1,1,3,0,3,3,0,no
16,1,4,1,0,1,3,2,17,1,13,6,1,no
3,0,0,0,0,0,1,1,3,0,3,3,0,no
3,1,0,0,0,0,1,1,3,0,3,3,0,no
5,3,1,1,0,1,1,1,5,0,5,5,0,no
3,1,0,0,0,0,1,1,3,0,3,3,0,no
3,1,0,0,0,0,1,1,3,0,3,3,0,no
3,2,0,0,0,0,1,1,3,0,3,3,0,no
3,2,0,0,0,0,1,1,3,0,3,3,0,no
12,2,1,1,0,0,1,1,12,0,12,12,0,no
0,0,0,0,0,0,1,1,0,0,0,0,0,no
13,1,2,2,1,2,1,1,13,0,13,13,0,no
19,2,4,3,3,2,1,1,19,0,19,19,0,no
17,0,1,2,0,0,1,1,17,0,17,17,0,no
0,0,0,0,0,0,1,1,0,0,0,0,0,no
5,1,0,0,0,2,1,1,5,0,5,5,0,no
4,1,0,0,0,1,1,1,4,0,4,4,0,no
0,1,0,0,0,0,1,1,0,0,0,0,0,no
0,1,0,0,0,0,1,1,0,0,0,0,0,no
3,0,0,0,0,0,1,1,3,0,3,3,0,no
3,0,0,0,0,0,1,1,3,0,3,3,0,no
3,1,0,0,0,0,1,1,3,0,3,3,0,no
12,1,2,2,0,2,1,1,12,0,12,12,0,no
3,0,0,0,0,0,1,1,3,0,3,3,0,no
3,0,0,0,0,0,1,1,3,0,3,3,0,no
0,1,0,0,0,0,1,1,0,0,0,0,0,no
0,1,0,0,0,0,1,1,0,0,0,0,0,no
0,0,0,0,0,0,1,1,0,0,0,0,0,no
3,0,0,0,0,0,1,1,3,0,3,3,0,no
8,0,0,1,0,0,1,1,8,0,8,8,0,no
3,0,0,0,0,0,1,1,3,0,3,3,0,no
14,2,3,1,1,2,1,1,14,0,14,14,0,no
0,2,0,0,0,0,1,1,0,0,0,0,0,no
19,2,4,2,1,1,1,1,19,0,19,19,0,no
0,1,0,0,0,0,1,1,0,0,0,0,0,no
12,2,1,2,0,0,1,1,12,0,12,12,0,no
13,3,1,1,3,2,1,1,13,0,13,13,0,no
3,2,0,0,0,0,1,1,3,0,3,3,0,no
30,2,6,2,3,3,1,1,30,0,30,30,0,no
13,1,2,1,0,2,1,1,13,0,13,13,0,no
18,2,1,2,1,0,1,1,18,0,18,18,0,no
10,2,1,1,1,1,1,1,10,0,10,10,0,no
4,1,0,0,1,0,1,1,4,0,4,4,0,no
5,1,1,1,1,0,1,1,5,0,5,5,0,no
4,0,0,0,1,0,1,1,4,0,4,4,0,no
15,0,3,2,0,2,1,1,15,0,15,15,0,no
4,2,0,0,0,0,1,1,4,0,4,4,0,no
8,2,1,1,0,1,1,1,8,0,8,8,1,no
8,2,1,1,1,1,1,1,8,0,8,8,0,no
8,2,1,1,1,1,1,1,8,0,8,8,0,no
3,7,0,0,0,0,1,1,3,0,3,3,1,no
3,1,0,0,0,0,1,1,3,0,3,3,0,no
3,0,0,0,0,0,1,1,3,0,3,3,0,no
3,0,0,0,0,0,1,1,3,0,3,3,0,no
57,3,12,5,1,8,3,1,59,2,58,20.333333,1,no
13,1,2,1,1,3,1,1,13,0,13,13,0,no
12,3,2,1,1,2,1,1,12,0,12,12,0,no
0,3,0,0,0,0,1,1,0,0,0,0,1,no
3,1,0,0,0,0,1,1,3,0,3,3,0,no
11,2,2,1,1,1,1,1,11,0,11,11,0,no
8,2,0,1,0,0,1,1,8,0,8,8,0,no
4,2,0,0,1,0,1,1,4,0,4,4,0,no
5,1,1,1,0,1,1,1,5,0,5,5,0,no
2,2,0,0,0,0,1,1,2,0,2,2,1,no
10,2,3,1,2,0,1,1,10,0,10,10,0,no
3,2,0,0,0,0,1,1,3,0,3,3,0,no
6,2,1,1,0,0,1,1,6,0,6,6,0,no
10,2,2,1,0,1,1,1,10,0,10,10,0,no
10,1,2,1,0,1,1,1,10,0,10,10,0,no
9,7,0,0,0,0,1,1,9,0,9,9,1,no
10,1,2,1,1,0,1,1,10,0,10,10,0,no
15,1,2,1,1,2,1,1,15,0,15,15,0,no
3,0,0,0,0,0,1,1,3,0,3,3,0,no
3,0,0,0,0,0,1,1,3,0,3,3,0,no
10,1,2,2,0,0,1,1,10,0,10,10,0,no
10,1,3,3,0,0,1,1,10,0,10,10,0,no
19,1,3,1,0,2,2,1,19,0,18,9.5,1,yes
33,1,9,4,1,3,1,1,33,0,33,33,0,no
3,0,0,0,0,0,1,1,3,0,3,3,0,no
4,1,0,0,0,1,1,1,4,0,4,4,0,no
13,1,2,1,0,0,1,1,13,0,13,13,0,no
5,1,1,1,1,0,1,1,5,0,5,5,0,no
4,2,0,0,0,0,1,1,4,0,4,4,0,no
3,0,0,0,0,0,1,1,3,0,3,3,0,no
0,0,0,0,0,0,1,1,0,0,0,0,0,no
12,0,1,1,0,1,1,1,1,1,2,2,0,no
3,2,0,0,0,0,1,1,3,0,3,3,0,no
26,1,3,1,1,2,1,1,26,0,26,26,0,no
5,0,0,0,0,1,1,1,5,0,5,5,0,no
14,1,2,1,1,0,1,1,14,0,14,14,0,no
6,3,0,0,0,0,1,1,6,0,6,6,0,no
3,2,0,0,0,0,1,1,3,0,3,3,0,no
6,2,1,1,0,0,2,2,7,1,6,4,0,no
20,2,4,1,1,2,1,1,20,0,20,20,0,no
7,3,1,1,1,0,1,1,7,0,7,7,0,no
7,0,1,1,0,3,1,1,7,0,7,7,0,no
3,0,0,0,0,0,1,1,3,0,3,3,0,no
4,2,0,0,1,0,1,1,4,0,4,4,0,no
3,0,0,0,0,0,1,1,3,0,3,3,0,no
46,2,9,3,4,6,2,1,46,0,33,23,0,no
3,1,0,0,0,0,1,1,3,0,3,3,0,no
3,2,0,0,0,0,1,1,3,0,3,3,0,no
4,3,0,0,0,0,1,1,4,0,4,4,0,no
7,4,0,0,0,0,1,1,7,0,7,7,0,no
3,0,0,0,0,0,1,1,3,0,3,3,0,no
22,1,4,1,0,0,1,1,22,0,22,22,0,no
26,0,3,1,0,1,1,1,26,0,26,26,0,no
8,2,0,0,0,1,1,1,8,0,8,8,0,no
4,1,0,0,0,1,1,1,4,0,4,4,0,no
3,0,0,0,0,0,1,1,3,0,3,3,0,no
10,1,2,1,0,1,1,1,10,0,10,10,0,no
12,0,1,1,0,2,1,1,12,0,12,12,0,no
17,1,2,1,0,2,1,1,17,0,17,17,0,no
14,1,2,2,1,1,1,1,14,0,14,14,0,no
20,1,4,2,0,1,1,1,20,0,20,20,0,no
5,0,0,0,0,1,1,1,5,0,5,5,0,no
15,2,2,1,1,1,1,1,15,0,15,15,0,no
14,1,2,1,0,0,1,1,14,0,14,14,0,no
3,2,0,0,0,0,1,1,3,0,3,3,0,no
6,0,0,0,0,1,1,1,6,0,6,6,0,no
6,4,0,0,0,0,1,1,6,0,6,6,0,no
9,2,2,1,1,0,1,1,3,0,3,3,1,no
11,2,3,1,3,0,0,0,0,0,0,0,0,no
8,0,1,1,1,0,1,1,3,0,3,3,0,no
5,2,0,0,0,0,1,1,5,0,5,5,0,no
31,1,6,3,1,3,1,1,2,0,2,2,0,no
6,2,0,0,0,0,2,1,6,0,5,3,1,no
9,3,1,1,0,1,1,1,9,0,9,9,0,no
13,0,3,2,0,2,1,1,13,0,13,13,0,no
3,0,0,0,0,0,1,1,3,0,3,3,0,no
5,1,0,0,0,2,1,1,5,0,5,5,0,no
4,1,0,0,0,1,1,1,4,0,4,4,0,no
17,1,3,1,0,3,1,1,17,0,17,17,0,no
3,1,0,0,0,0,1,1,3,0,3,3,0,no
8,1,1,1,0,1,1,1,8,0,8,8,0,no
12,1,2,2,0,2,1,1,12,0,12,12,0,no
3,0,0,0,0,0,1,1,3,0,3,3,0,no
19,2,4,2,1,3,1,1,19,0,19,19,0,no
3,2,0,0,0,0,1,1,3,0,3,3,1,no
3,1,0,0,0,0,1,1,3,0,3,3,0,no
3,2,0,0,0,0,1,1,3,0,3,3,0,no
21,3,5,3,0,2,1,1,21,0,21,21,0,no
9,1,1,1,0,1,1,1,9,0,9,9,0,no
3,2,0,0,0,0,1,1,3,0,3,3,0,no
8,3,1,1,0,1,1,1,8,0,8,8,1,no
4,2,0,0,0,0,1,1,4,0,4,4,0,no
22,3,1,1,1,3,3,1,27,5,26,10.666667,1,no
12,3,2,2,0,2,2,1,66,54,66,60,0,no
14,3,2,2,0,2,1,1,14,0,14,14,1,no
3,2,0,0,0,0,1,1,3,0,3,3,0,no
5,2,0,0,0,0,3,1,10,5,9,5,1,no
3,2,0,0,0,0,1,1,3,0,3,3,0,no
6,0,0,0,0,1,1,1,6,0,6,6,0,no
5,2,0,0,0,0,1,1,5,0,5,5,0,no
30,3,4,1,0,3,1,1,30,0,30,30,0,no
13,0,3,2,0,2,1,1,13,0,13,13,0,no
3,0,0,0,0,0,1,1,3,0,3,3,0,no
4,1,0,0,0,1,1,1,4,0,4,4,0,no
3,1,0,0,0,0,1,1,3,0,3,3,0,no
17,1,3,1,0,3,1,1,17,0,17,17,0,no
3,1,0,0,0,0,1,1,3,0,3,3,0,no
17,1,3,3,0,2,1,1,17,0,17,17,0,no
3,0,0,0,0,0,1,1,3,0,3,3,0,no
9,2,1,1,1,1,1,1,9,0,9,9,0,no
3,1,0,0,0,0,1,1,3,0,3,3,0,no
3,2,0,0,0,0,1,1,3,0,3,3,0,no
21,3,5,3,0,2,1,1,21,0,21,21,0,no
9,1,1,1,0,1,1,1,9,0,9,9,0,no
10,3,1,1,0,3,1,1,10,0,10,10,1,no
23,1,2,2,0,3,1,1,23,0,23,23,1,no
8,2,1,1,0,0,1,1,8,0,8,8,1,no
3,2,0,0,0,0,1,1,3,0,3,3,1,no
8,1,1,1,0,0,1,1,8,0,8,8,0,no
4,2,0,0,0,0,3,1,5,1,4,2,1,no
3,3,0,0,0,0,1,1,3,0,3,3,0,no
3,7,0,0,0,0,1,1,3,0,3,3,1,no
3,0,0,0,0,0,1,1,3,0,3,3,0,no
6,1,1,1,0,0,1,1,6,0,6,6,0,no
7,3,1,1,0,0,2,1,47,40,47,43.5,0,no
9,1,1,1,1,2,2,1,18,9,18,13.5,0,no
14,3,2,2,0,2,1,1,14,0,14,14,1,no
6,1,1,1,0,0,2,1,7,1,7,4,0,no
4,2,0,0,0,0,1,1,4,0,4,4,1,no
8,2,1,1,0,0,1,1,8,0,8,8,0,no
4,7,0,0,0,0,1,1,4,0,4,4,1,no
9,1,2,2,2,0,1,1,9,0,9,9,0,no
12,1,1,1,0,1,1,1,12,0,12,12,0,no
12,0,1,1,0,1,1,1,12,0,12,12,0,no
10,1,2,2,0,0,1,1,10,0,10,10,0,no
5,1,1,1,0,0,1,1,5,0,5,5,0,no
5,1,1,1,0,0,1,1,5,0,5,5,0,no
3,2,0,0,0,0,1,1,3,0,3,3,0,no
6,0,0,0,0,1,2,1,6,0,5,3,0,no
8,1,1,1,1,0,1,1,8,0,8,8,0,no
3,0,0,0,0,0,1,1,3,0,3,3,0,no
3,0,0,0,0,0,1,1,3,0,3,3,0,no
5,0,0,0,0,1,1,1,5,0,5,5,0,no
14,0,0,0,0,0,1,1,14,0,14,14,0,no
0,0,0,0,0,0,1,1,0,0,0,0,0,no
2,2,0,0,0,0,1,1,2,0,2,2,0,no
2,2,0,0,0,0,1,1,2,0,2,2,0,no
3,0,0,0,0,0,1,1,3,0,3,3,0,no
3,0,0,0,0,0,1,1,3,0,3,3,0,no
3,1,0,0,0,0,1,1,3,0,3,3,1,no
3,0,0,0,0,0,1,1,3,0,3,3,0,no
4,1,0,0,0,1,1,1,4,0,4,4,0,no
0,3,0,0,1,0,1,1,0,0,0,0,0,no
0,1,0,0,1,0,1,1,0,0,0,0,0,no
6,1,1,1,0,1,2,1,7,1,6,4,0,no
6,3,1,1,0,1,2,1,7,1,6,4,0,no
8,1,2,2,0,1,2,1,9,1,8,5,0,no
6,0,1,1,0,1,2,1,7,1,6,4,0,no
0,1,0,0,1,0,1,1,0,0,0,0,0,no
0,0,0,0,1,0,1,1,0,0,0,0,0,no
0,2,0,0,1,0,1,1,0,0,0,0,0,no
0,2,0,0,1,0,1,1,0,0,0,0,0,no
12,2,0,0,0,0,1,1,12,0,12,12,0,no
3,3,0,0,0,0,1,1,3,0,3,3,0,no
16,4,2,1,2,0,1,1,16,0,16,16,0,no
3,3,0,0,0,0,2,2,4,1,3,2.5,0,no
33,7,5,3,2,2,1,1,33,0,33,33,0,no
3,4,0,0,0,0,1,1,3,0,3,3,0,no
3,0,0,0,0,0,1,1,3,0,3,3,0,no
2,2,0,0,1,0,1,1,2,0,2,2,0,no
2,2,0,0,1,0,1,1,2,0,2,2,0,no
5,2,1,1,1,0,1,1,5,0,5,5,0,no
5,2,1,1,1,0,1,1,5,0,5,5,0,no
3,2,0,0,0,0,1,1,3,0,3,3,0,no
3,2,0,0,0,0,1,1,3,0,3,3,0,no
6,2,1,1,1,0,1,1,6,0,6,6,0,no
5,2,1,1,1,0,1,1,5,0,5,5,0,no
9,0,2,2,0,0,1,1,9,0,9,9,0,no
7,1,1,1,0,0,1,1,7,0,7,7,0,no
7,2,1,1,0,0,1,1,7,0,7,7,0,no
7,1,1,1,0,0,1,1,7,0,7,7,0,no
4,2,0,0,0,0,1,1,4,0,4,4,0,no
3,0,0,0,0,0,1,1,3,0,3,3,0,no
3,1,0,0,0,0,1,1,3,0,3,3,0,no
3,2,0,0,0,0,1,1,3,0,3,3,0,no
3,0,0,0,0,0,1,1,3,0,3,3,0,no
3,1,0,0,0,0,1,1,3,0,3,3,0,no
3,1,0,0,0,0,1,1,3,0,3,3,0,no
11,2,2,1,0,1,1,1,11,0,11,11,0,no
3,1,0,0,0,0,1,1,3,0,3,3,0,no
18,1,5,2,2,2,1,1,18,0,18,18,0,no
7,0,1,1,0,1,1,1,7,0,7,7,0,no
14,1,2,1,4,1,1,1,14,0,14,14,0,no
3,2,0,0,0,0,1,1,3,0,3,3,0,no
10,3,1,1,2,0,1,1,10,0,10,10,0,no
6,1,1,1,4,1,1,1,6,0,6,6,0,no
3,0,0,0,0,0,1,1,3,0,3,3,0,no
3,0,0,0,0,0,1,1,3,0,3,3,0,no
3,0,0,0,0,0,1,1,3,0,3,3,0,no
3,0,0,0,0,0,1,1,3,0,3,3,0,no
3,0,0,0,0,0,1,1,3,0,3,3,0,no
3,0,0,0,0,0,1,1,3,0,3,3,1,no
3,0,0,0,0,0,1,1,3,0,3,3,0,no
3,1,0,0,0,0,1,1,3,0,3,3,0,no
5,0,0,0,0,1,1,1,5,0,5,5,0,no
2,0,0,0,1,0,1,1,2,0,2,2,0,no
3,1,0,0,0,0,1,1,3,0,3,3,0,no
3,0,0,0,0,0,1,1,3,0,3,3,0,no
3,0,0,0,0,0,1,1,3,0,3,3,0,no
3,1,0,0,0,0,1,1,3,0,3,3,0,no
4,2,0,0,0,0,1,1,4,0,4,4,0,no
3,0,0,0,0,0,1,1,3,0,3,3,0,no
3,2,0,0,0,0,1,1,3,0,3,3,0,no
3,0,0,0,0,0,1,1,3,0,3,3,0,no
8,2,3,2,4,3,1,1,8,0,8,8,0,no
3,1,0,0,0,0,1,1,3,0,3,3,0,no
11,1,2,2,1,3,2,2,12,1,11,6.5,1,no
0,3,0,0,1,0,1,1,0,0,0,0,0,no
3,1,0,0,0,0,1,1,3,0,3,3,0,no
4,2,0,0,0,0,1,1,4,0,4,4,0,no
4,3,0,0,0,0,1,1,4,0,4,4,0,no
4,2,0,0,0,0,1,1,4,0,4,4,0,no
45,2,18,18,0,0,5,2,45,0,25,9,1,no
3,0,0,0,0,0,1,1,3,0,3,3,0,no
3,1,0,0,0,0,1,1,3,0,3,3,0,no
3,1,0,0,0,0,1,1,3,0,3,3,0,no
3,1,0,0,0,0,1,1,3,0,3,3,0,no
4,1,0,0,0,0,2,2,5,1,4,3,0,no
8,1,2,1,2,2,1,1,8,0,8,8,0,no
3,0,0,0,0,0,1,1,3,0,3,3,0,no
3,1,0,0,0,0,1,1,3,0,3,3,0,no
3,1,0,0,0,0,1,1,3,0,3,3,0,no
3,2,0,0,0,0,1,1,3,0,3,3,0,no
3,1,0,0,0,0,1,1,3,0,3,3,0,no
3,1,0,0,0,0,1,1,3,0,3,3,0,no
3,1,0,0,0,0,1,1,3,0,3,3,0,no
3,1,0,0,0,0,1,1,3,0,3,3,0,no
3,1,0,0,0,0,1,1,3,0,3,3,0,no
3,1,0,0,0,0,1,1,3,0,3,3,1,no
3,1,0,0,0,0,1,1,3,0,3,3,0,no
3,1,0,0,0,0,1,1,3,0,3,3,0,no
3,1,0,0,0,0,1,1,3,0,3,3,0,no
3,2,0,0,0,0,1,1,3,0,3,3,1,no
3,1,0,0,0,0,1,1,3,0,3,3,0,no
3,1,0,0,0,0,1,1,3,0,3,3,0,no
3,1,0,0,0,0,1,1,3,0,3,3,0,no
3,1,0,0,0,0,1,1,3,0,3,3,0,no
3,1,0,0,0,0,1,1,3,0,3,3,0,no
3,1,0,0,0,0,1,1,3,0,3,3,0,no
3,2,0,0,0,0,1,1,3,0,3,3,0,no
2,0,0,0,0,0,1,1,2,0,2,2,1,no
3,0,0,0,0,0,1,1,3,0,3,3,1,no
2,1,0,0,1,0,1,1,2,0,2,2,1,no
60,1,0,0,84,0,14,2,64,4,32,4.857143,1,no
3,1,0,0,0,0,1,1,3,0,3,3,0,no
2,1,0,0,1,0,1,1,2,0,2,2,0,no
3,0,0,0,0,0,1,1,3,0,3,3,0,no
3,0,0,0,0,0,1,1,3,0,3,3,0,no
3,0,0,0,2,0,1,1,3,0,3,3,0,no
12,0,2,1,2,1,1,1,12,0,12,12,0,no
3,0,0,0,0,0,1,1,3,0,3,3,0,no
3,0,0,0,1,0,1,1,3,0,3,3,0,no
3,0,0,0,0,0,1,1,3,0,3,3,0,no
3,0,0,0,1,0,1,1,3,0,3,3,0,no
11,0,2,1,2,1,1,1,11,0,11,11,0,no
3,0,0,0,0,0,1,1,3,0,3,3,0,no
3,1,0,0,1,0,1,1,3,0,3,3,0,no
3,0,0,0,0,0,1,1,3,0,3,3,0,no
4,1,0,0,2,1,1,1,4,0,4,4,0,no
8,1,1,1,1,1,1,1,8,0,8,8,0,no
8,2,1,1,1,1,1,1,8,0,8,8,0,no
3,1,0,0,1,0,1,1,3,0,3,3,0,no
3,2,0,0,1,0,1,1,3,0,3,3,0,no
3,1,0,0,1,0,1,1,3,0,3,3,0,no
3,2,0,0,1,0,1,1,3,0,3,3,0,no
3,1,0,0,1,0,1,1,3,0,3,3,0,no
3,2,0,0,1,0,1,1,3,0,3,3,0,no
3,1,0,0,1,0,1,1,3,0,3,3,0,no
3,2,0,0,1,0,1,1,3,0,3,3,0,no
3,0,0,0,0,0,1,1,3,0,3,3,0,no
3,0,0,0,2,0,1,1,3,0,3,3,0,no
7,1,1,1,1,0,1,1,7,0,7,7,0,no
3,0,0,0,0,0,1,1,3,0,3,3,0,no
4,1,0,0,0,0,1,1,4,0,4,4,0,no
7,0,1,1,2,1,1,1,7,0,7,7,0,no
7,0,1,1,2,1,1,1,7,0,7,7,0,no
12,0,1,1,6,3,1,1,12,0,12,12,0,no
6,0,0,0,1,0,1,1,6,0,6,6,0,no
6,0,0,0,1,0,1,1,6,0,6,6,0,no
3,0,0,0,1,0,1,1,3,0,3,3,0,no
3,0,0,0,0,0,1,1,3,0,3,3,0,no
3,0,0,0,2,0,1,1,3,0,3,3,0,no
3,0,0,0,2,0,1,1,3,0,3,3,0,no
3,0,0,0,1,0,1,1,3,0,3,3,0,no
3,0,0,0,0,0,1,1,3,0,3,3,0,no
3,0,0,0,1,0,1,1,3,0,3,3,0,no
3,0,0,0,1,0,1,1,3,0,3,3,0,no
6,0,1,1,2,0,1,1,6,0,6,6,0,no
4,0,1,1,1,0,1,1,4,0,4,4,0,no
27,2,5,3,1,2,1,1,27,0,27,27,0,no
8,1,1,1,2,0,1,1,8,0,8,8,0,no
9,1,2,1,3,0,1,1,9,0,9,9,0,no
9,1,1,1,0,0,1,1,9,0,9,9,0,no
0,0,0,0,0,0,1,1,0,0,0,0,0,no
0,0,0,0,0,0,1,1,0,0,0,0,0,no
3,1,0,0,0,0,1,1,3,0,3,3,1,no
2,1,0,0,1,0,1,1,2,0,2,2,1,no
3,0,0,0,0,0,1,1,3,0,3,3,1,no
3,0,0,0,0,0,1,1,3,0,3,3,1,no
3,0,0,0,2,0,1,1,3,0,3,3,1,no
3,0,0,0,1,0,1,1,3,0,3,3,1,no
3,0,0,0,1,0,1,1,3,0,3,3,1,no
15,0,3,1,3,1,2,1,16,1,15,8.5,1,no
3,0,0,0,0,0,1,1,3,0,3,3,1,no
3,0,0,0,1,0,2,1,4,1,3,2.5,1,no
3,0,0,0,1,0,2,1,4,1,3,2.5,1,no
4,0,0,0,1,0,2,1,4,0,3,2,1,no
3,0,0,0,1,0,1,1,3,0,3,3,1,no
19,0,4,1,2,1,2,1,19,0,10,9.5,1,no
3,0,0,0,0,0,1,1,3,0,3,3,1,no
3,1,0,0,1,0,1,1,3,0,3,3,1,no
3,0,0,0,0,0,1,1,3,0,3,3,1,no
4,1,0,0,2,1,1,1,4,0,4,4,1,no
8,1,1,1,1,1,1,1,8,0,8,8,1,no
8,2,1,1,1,1,1,1,8,0,8,8,1,no
3,1,0,0,1,0,1,1,3,0,3,3,1,no
3,2,0,0,1,0,1,1,3,0,3,3,1,no
3,1,0,0,1,0,1,1,3,0,3,3,1,no
3,2,0,0,1,0,1,1,3,0,3,3,1,no
3,1,0,0,1,0,1,1,3,0,3,3,1,no
3,2,0,0,1,0,1,1,3,0,3,3,1,no
3,1,0,0,1,0,1,1,3,0,3,3,1,no
3,2,0,0,1,0,1,1,3,0,3,3,1,no
3,0,0,0,0,0,1,1,3,0,3,3,1,no
3,0,0,0,2,0,1,1,3,0,3,3,1,no
10,1,2,1,2,0,2,1,11,1,10,6,1,no
3,0,0,0,0,0,2,1,3,0,2,1.5,1,no
4,1,0,0,0,0,1,1,4,0,4,4,1,no
7,0,1,1,2,1,2,1,7,0,6,3.5,1,no
7,0,1,1,2,1,2,1,7,0,6,3.5,1,no
20,0,3,1,7,3,2,1,20,0,12,10,1,no
12,0,1,1,3,0,2,1,12,0,7,6,1,no
10,0,1,1,2,0,2,1,10,0,5,5,1,no
6,0,0,0,1,0,2,1,6,0,5,3,1,no
3,0,0,0,1,0,2,1,4,1,3,2.5,1,no
3,0,0,0,0,0,2,1,5,2,5,3.5,1,no
3,0,0,0,2,0,1,1,3,0,3,3,1,no
3,0,0,0,2,0,1,1,3,0,3,3,1,no
3,0,0,0,1,0,1,1,3,0,3,3,1,no
7,0,1,1,1,0,2,1,7,0,4,3.5,1,no
5,0,0,0,1,0,1,1,5,0,5,5,1,no
7,0,1,1,6,0,1,1,7,0,7,7,1,no
7,0,1,1,1,0,1,1,7,0,7,7,1,no
3,0,0,0,0,0,2,1,4,1,3,2.5,1,no
3,0,0,0,1,0,2,1,4,1,3,2.5,1,no
3,0,0,0,1,0,2,1,4,1,3,2.5,1,no
3,0,0,0,1,0,1,1,3,0,3,3,1,no
12,0,3,1,2,0,2,1,12,0,9,6,1,no
5,0,1,1,0,0,1,1,5,0,5,5,1,no
37,2,7,3,3,3,2,1,37,0,34,18.5,1,no
8,1,1,1,2,0,1,1,8,0,8,8,1,no
12,1,3,1,3,0,1,1,12,0,12,12,1,no
14,1,2,2,4,0,2,1,14,0,9,7,1,no
13,1,2,2,1,0,2,1,13,0,8,6.5,1,no
10,1,1,1,1,0,2,1,10,0,5,5,1,no
9,1,1,1,0,0,2,1,9,0,8,4.5,1,no
0,0,0,0,1,0,1,1,0,0,0,0,1,no
0,0,0,0,1,0,1,1,0,0,0,0,1,no
0,0,0,0,0,0,1,1,0,0,0,0,1,no
0,0,0,0,0,0,1,1,0,0,0,0,1,no
0,0,0,0,0,0,1,1,0,0,0,0,1,no
3,1,0,0,0,0,1,1,3,0,3,3,0,no
2,1,0,0,1,0,1,1,2,0,2,2,0,no
3,0,0,0,0,0,1,1,3,0,3,3,0,no
3,0,0,0,0,0,1,1,3,0,3,3,0,no
3,0,0,0,0,0,1,1,3,0,3,3,0,no
3,0,0,0,2,0,1,1,3,0,3,3,0,no
13,0,2,2,1,3,1,1,13,0,13,13,0,no
10,0,1,1,1,2,1,1,10,0,10,10,0,no
15,0,3,1,3,1,1,1,15,0,15,15,0,no
3,0,0,0,1,0,1,1,3,0,3,3,0,no
3,0,0,0,1,0,1,1,3,0,3,3,0,no
4,0,0,0,0,0,1,1,4,0,4,4,0,no
3,0,0,0,1,0,1,1,3,0,3,3,0,no
15,0,3,1,2,1,1,1,15,0,15,15,0,no
3,0,0,0,0,0,1,1,3,0,3,3,0,no
3,1,0,0,1,0,1,1,3,0,3,3,0,no
3,0,0,0,0,0,1,1,3,0,3,3,0,no
4,1,0,0,2,1,1,1,4,0,4,4,0,no
8,1,1,1,1,1,1,1,8,0,8,8,0,no
8,2,1,1,1,1,1,1,8,0,8,8,0,no
3,1,0,0,1,0,1,1,3,0,3,3,0,no
3,2,0,0,1,0,1,1,3,0,3,3,0,no
3,1,0,0,1,0,1,1,3,0,3,3,0,no
3,2,0,0,1,0,1,1,3,0,3,3,0,no
3,1,0,0,1,0,1,1,3,0,3,3,0,no
3,2,0,0,1,0,1,1,3,0,3,3,0,no
3,1,0,0,1,0,1,1,3,0,3,3,0,no
3,2,0,0,1,0,1,1,3,0,3,3,0,no
3,0,0,0,0,0,1,1,3,0,3,3,0,no
3,0,0,0,2,0,1,1,3,0,3,3,0,no
10,1,2,1,2,0,1,1,10,0,10,10,0,no
3,0,0,0,0,0,1,1,3,0,3,3,0,no
4,1,0,0,0,0,1,1,4,0,4,4,0,no
7,0,1,1,2,1,1,1,7,0,7,7,0,no
7,0,1,1,2,1,1,1,7,0,7,7,0,no
16,0,2,1,7,3,1,1,16,0,16,16,0,no
8,0,0,0,2,0,1,1,8,0,8,8,0,no
6,0,0,0,1,0,1,1,6,0,6,6,0,no
6,0,0,0,1,0,1,1,6,0,6,6,0,no
3,0,0,0,1,0,1,1,3,0,3,3,0,no
3,0,0,0,0,0,1,1,3,0,3,3,0,no
3,0,0,0,0,0,1,1,3,0,3,3,0,no
3,0,0,0,2,0,1,1,3,0,3,3,0,no
3,0,0,0,2,0,1,1,3,0,3,3,0,no
3,0,0,0,1,0,1,1,3,0,3,3,0,no
10,0,1,1,1,2,1,1,10,0,10,10,0,no
3,0,0,0,1,0,1,1,3,0,3,3,0,no
3,0,0,0,1,0,1,1,3,0,3,3,0,no
3,0,0,0,1,0,1,1,3,0,3,3,0,no
9,0,2,1,2,0,1,1,9,0,9,9,0,no
4,0,1,1,1,0,1,1,4,0,4,4,0,no
33,2,6,3,1,2,1,1,33,0,33,33,0,no
8,1,1,1,2,0,1,1,8,0,8,8,0,no
12,1,3,1,3,0,1,1,12,0,12,12,0,no
6,1,0,0,0,0,1,1,6,0,6,6,0,no
9,1,1,1,0,0,1,1,9,0,9,9,0,no
5,1,0,0,0,0,1,1,5,0,5,5,0,no
0,0,0,0,0,0,1,1,0,0,0,0,0,no
0,0,0,0,0,0,1,1,0,0,0,0,0,no
0,0,0,0,0,0,1,1,0,0,0,0,0,no
0,0,0,0,0,0,1,1,0,0,0,0,0,no
3,1,0,0,0,0,1,1,3,0,3,3,0,no
2,1,0,0,1,0,1,1,2,0,2,2,0,no
3,0,0,0,0,0,1,1,3,0,3,3,0,no
3,0,0,0,0,0,1,1,3,0,3,3,0,no
3,0,0,0,2,0,1,1,3,0,3,3,0,no
3,0,0,0,0,0,1,1,3,0,3,3,0,no
12,0,2,1,2,1,1,1,12,0,12,12,0,no
3,0,0,0,1,0,1,1,3,0,3,3,0,no
3,0,0,0,0,0,1,1,3,0,3,3,0,no
3,0,0,0,1,0,1,1,3,0,3,3,0,no
11,0,2,1,2,1,1,1,11,0,11,11,0,no
3,0,0,0,0,0,1,1,3,0,3,3,0,no
3,1,0,0,1,0,1,1,3,0,3,3,0,no
3,0,0,0,0,0,1,1,3,0,3,3,0,no
4,1,0,0,2,1,1,1,4,0,4,4,0,no
8,1,1,1,1,1,1,1,8,0,8,8,0,no
8,2,1,1,1,1,1,1,8,0,8,8,0,no
3,1,0,0,1,0,1,1,3,0,3,3,0,no
3,2,0,0,1,0,1,1,3,0,3,3,0,no
3,1,0,0,1,0,1,1,3,0,3,3,0,no
3,2,0,0,1,0,1,1,3,0,3,3,0,no
3,1,0,0,1,0,1,1,3,0,3,3,0,no
3,2,0,0,1,0,1,1,3,0,3,3,0,no
3,1,0,0,1,0,1,1,3,0,3,3,0,no
3,2,0,0,1,0,1,1,3,0,3,3,0,no
3,0,0,0,0,0,1,1,3,0,3,3,0,no
3,0,0,0,2,0,1,1,3,0,3,3,0,no
7,1,1,1,1,0,1,1,7,0,7,7,0,no
3,0,0,0,0,0,1,1,3,0,3,3,0,no
4,1,0,0,0,0,1,1,4,0,4,4,0,no
7,0,1,1,2,1,1,1,7,0,7,7,0,no
7,0,1,1,2,1,1,1,7,0,7,7,0,no
12,0,1,1,6,3,1,1,12,0,12,12,0,no
6,0,0,0,1,0,1,1,6,0,6,6,0,no
6,0,0,0,1,0,1,1,6,0,6,6,0,no
3,0,0,0,1,0,1,1,3,0,3,3,0,no
3,0,0,0,0,0,1,1,3,0,3,3,0,no
3,0,0,0,2,0,1,1,3,0,3,3,0,no
3,0,0,0,2,0,1,1,3,0,3,3,0,no
3,0,0,0,1,0,1,1,3,0,3,3,0,no
3,0,0,0,0,0,1,1,3,0,3,3,0,no
3,0,0,0,1,0,1,1,3,0,3,3,0,no
3,0,0,0,1,0,1,1,3,0,3,3,0,no
6,0,1,1,2,0,1,1,6,0,6,6,0,no
4,0,1,1,1,0,1,1,4,0,4,4,0,no
27,2,5,3,1,2,1,1,27,0,27,27,0,no
8,1,1,1,2,0,1,1,8,0,8,8,0,no
9,1,2,1,3,0,1,1,9,0,9,9,0,no
6,1,0,0,0,0,1,1,6,0,6,6,0,no
0,0,0,0,0,0,1,1,0,0,0,0,0,no
0,0,0,0,0,0,1,1,0,0,0,0,0,no
3,1,0,0,0,0,1,1,3,0,3,3,1,no
2,1,0,0,1,0,1,1,2,0,2,2,1,no
3,0,0,0,0,0,1,1,3,0,3,3,1,no
3,0,0,0,0,0,1,1,3,0,3,3,1,no
3,0,0,0,2,0,1,1,3,0,3,3,1,no
3,0,0,0,1,0,1,1,3,0,3,3,1,no
3,0,0,0,1,0,1,1,3,0,3,3,1,no
3,0,0,0,0,0,1,1,3,0,3,3,1,no
18,0,4,1,4,1,3,1,19,1,15,6.666667,1,no
3,0,0,0,0,0,1,1,3,0,3,3,1,no
3,0,0,0,1,0,2,1,4,1,3,2.5,1,no
3,0,0,0,1,0,2,1,4,1,3,2.5,1,no
3,0,0,0,1,0,1,1,3,0,3,3,1,no
5,0,0,0,1,0,3,1,5,0,3,1.666667,1,no
3,0,0,0,1,0,1,1,3,0,3,3,1,no
17,0,4,2,2,1,2,1,17,0,9,8.5,1,no
3,0,0,0,0,0,1,1,3,0,3,3,1,no
3,1,0,0,1,0,1,1,3,0,3,3,1,no
3,0,0,0,0,0,1,1,3,0,3,3,1,no
4,1,0,0,2,1,1,1,4,0,4,4,1,no
8,1,1,1,1,1,1,1,8,0,8,8,1,no
8,2,1,1,1,1,1,1,8,0,8,8,1,no
3,1,0,0,1,0,1,1,3,0,3,3,1,no
3,2,0,0,1,0,1,1,3,0,3,3,1,no
3,1,0,0,1,0,1,1,3,0,3,3,1,no
3,2,0,0,1,0,1,1,3,0,3,3,1,no
3,1,0,0,1,0,1,1,3,0,3,3,1,no
3,2,0,0,1,0,1,1,3,0,3,3,1,no
3,1,0,0,1,0,1,1,3,0,3,3,1,no
3,2,0,0,1,0,1,1,3,0,3,3,1,no
3,0,0,0,0,0,1,1,3,0,3,3,1,no
3,0,0,0,2,0,1,1,3,0,3,3,1,no
13,1,3,1,3,0,3,1,14,1,10,5,1,no
3,0,0,0,0,0,2,1,3,0,2,1.5,1,no
4,1,0,0,0,0,1,1,4,0,4,4,1,no
7,0,1,1,2,1,2,1,7,0,6,3.5,1,no
7,0,1,1,2,1,2,1,7,0,6,3.5,1,no
24,0,4,1,8,3,3,1,24,0,12,8,1,no
14,0,1,1,4,0,3,1,14,0,7,4.666667,1,no
10,0,1,1,2,0,2,1,10,0,5,5,1,no
6,0,0,0,1,0,2,1,6,0,5,3,1,no
6,0,0,0,1,0,1,1,6,0,6,6,1,no
3,0,0,0,1,0,2,1,4,1,3,2.5,1,no
3,0,0,0,0,0,2,1,5,2,5,3.5,1,no
3,0,0,0,2,0,1,1,3,0,3,3,1,no
3,0,0,0,2,0,1,1,3,0,3,3,1,no
3,0,0,0,1,0,1,1,3,0,3,3,1,no
7,0,1,1,1,0,2,1,7,0,4,3.5,1,no
5,0,0,0,1,0,1,1,5,0,5,5,1,no
7,0,1,1,6,0,1,1,7,0,7,7,1,no
7,0,1,1,1,0,1,1,7,0,7,7,1,no
3,0,0,0,0,0,2,1,4,1,3,2.5,1,no
3,0,0,0,0,0,1,1,3,0,3,3,1,no
3,0,0,0,1,0,2,1,4,1,3,2.5,1,no
3,0,0,0,1,0,2,1,4,1,3,2.5,1,no
3,0,0,0,1,0,1,1,3,0,3,3,1,no
3,0,0,0,1,0,1,1,3,0,3,3,1,no
11,0,3,2,1,0,2,1,11,0,8,5.5,1,no
5,0,1,1,0,0,1,1,5,0,5,5,1,no
14,1,2,2,4,0,2,1,14,0,9,7,1,no
43,2,8,3,3,3,3,1,43,0,34,14.333333,1,no
8,1,1,1,2,0,1,1,8,0,8,8,1,no
15,1,4,1,3,0,2,1,15,0,12,7.5,1,no
13,1,2,2,1,0,2,1,13,0,8,6.5,1,no
10,1,1,1,1,0,2,1,10,0,5,5,1,no
6,1,0,0,0,0,2,1,6,0,5,3,1,no
6,1,0,0,0,0,1,1,6,0,6,6,1,no
0,0,0,0,1,0,1,1,0,0,0,0,1,no
0,0,0,0,1,0,1,1,0,0,0,0,1,no
0,0,0,0,0,0,1,1,0,0,0,0,1,no
0,0,0,0,0,0,1,1,0,0,0,0,1,no
0,0,0,0,0,0,1,1,0,0,0,0,1,no
0,0,0,0,0,0,1,1,0,0,0,0,1,no
0,0,0,0,0,0,1,1,0,0,0,0,1,no
3,1,0,0,0,0,1,1,3,0,3,3,1,no
2,1,0,0,1,0,1,1,2,0,2,2,1,no
3,0,0,0,0,0,1,1,3,0,3,3,1,no
3,0,0,0,0,0,1,1,3,0,3,3,1,no
3,0,0,0,2,0,1,1,3,0,3,3,1,no
3,1,0,0,1,0,1,1,3,0,3,3,1,no
3,0,0,0,0,0,1,1,3,0,3,3,1,no
3,0,0,0,1,0,1,1,3,0,3,3,1,no
3,1,0,0,1,0,1,1,3,0,3,3,1,no
3,0,0,0,1,0,1,1,3,0,3,3,1,no
12,0,2,1,1,2,2,1,13,1,12,7,1,no
3,0,0,0,0,0,2,1,3,0,2,1.5,1,no
3,0,0,0,1,0,1,1,3,0,3,3,1,no
13,0,3,2,2,2,2,1,13,0,7,6.5,1,no
3,0,0,0,0,0,1,1,3,0,3,3,1,no
3,1,0,0,1,0,1,1,3,0,3,3,1,no
3,0,0,0,0,0,1,1,3,0,3,3,1,no
4,1,0,0,2,1,1,1,4,0,4,4,1,no
8,1,1,1,1,1,1,1,8,0,8,8,1,no
8,2,1,1,1,1,1,1,8,0,8,8,1,no
3,1,0,0,1,0,1,1,3,0,3,3,1,no
3,2,0,0,1,0,1,1,3,0,3,3,1,no
3,1,0,0,1,0,1,1,3,0,3,3,1,no
3,2,0,0,1,0,1,1,3,0,3,3,1,no
3,1,0,0,1,0,1,1,3,0,3,3,1,no
3,2,0,0,1,0,1,1,3,0,3,3,1,no
3,1,0,0,1,0,1,1,3,0,3,3,1,no
3,2,0,0,1,0,1,1,3,0,3,3,1,no
3,0,0,0,0,0,1,1,3,0,3,3,1,no
3,0,0,0,2,0,1,1,3,0,3,3,1,no
7,1,1,1,0,1,2,1,8,1,7,4.5,1,no
3,0,0,0,0,0,2,1,3,0,2,1.5,1,no
4,1,0,0,0,0,1,1,4,0,4,4,1,no
10,1,1,1,2,0,2,1,10,0,7,5,1,no
13,2,2,2,1,0,1,1,13,0,13,13,1,no
10,2,1,1,1,0,1,1,10,0,10,10,1,no
13,1,2,2,1,0,2,1,13,0,10,6.5,1,no
10,1,1,1,1,0,2,1,10,0,7,5,1,no
3,0,0,0,2,0,1,1,3,0,3,3,1,no
3,1,0,0,2,0,1,1,3,0,3,3,1,no
7,0,1,1,2,1,2,1,7,0,6,3.5,1,no
7,0,1,1,2,1,2,1,7,0,6,3.5,1,no
15,0,2,2,7,2,2,1,15,0,11,7.5,1,no
10,0,1,1,1,0,2,1,10,0,7,5,1,no
10,0,1,1,1,0,2,1,10,0,6,5,1,no
3,0,0,0,1,0,2,1,4,1,3,2.5,1,no
3,0,0,0,0,0,2,1,5,2,5,3.5,1,no
6,0,1,1,2,0,1,1,6,0,6,6,1,no
3,0,0,0,2,0,1,1,3,0,3,3,1,no
3,0,0,0,2,0,1,1,3,0,3,3,1,no
3,0,0,0,1,0,1,1,3,0,3,3,1,no
7,1,1,1,1,0,2,1,7,0,4,3.5,1,no
3,1,0,0,1,0,1,1,3,0,3,3,1,no
3,0,0,0,1,0,1,1,3,0,3,3,1,no
7,0,1,1,0,0,2,1,7,0,4,3.5,1,no
7,0,1,1,7,0,1,1,7,0,7,7,1,no
7,0,1,1,1,0,2,1,7,0,4,3.5,1,no
7,1,1,1,1,0,1,1,7,0,7,7,1,no
7,0,1,1,1,0,1,1,7,0,7,7,1,no
3,0,0,0,1,0,1,1,3,0,3,3,1,no
8,0,2,2,1,1,2,1,8,0,5,4,1,no
5,0,1,1,0,0,1,1,5,0,5,5,1,no
28,2,5,3,3,3,2,1,28,0,26,14,1,no
8,1,1,1,2,0,1,1,8,0,8,8,1,no
30,1,7,3,5,0,2,1,30,0,18,15,1,no
10,1,1,1,0,0,1,1,10,0,10,10,1,no
13,2,2,2,1,0,2,1,13,0,7,6.5,1,no
10,2,1,1,1,0,2,1,10,0,6,5,1,no
0,1,0,0,1,0,1,1,0,0,0,0,1,no
0,0,0,0,0,0,1,1,0,0,0,0,1,no
0,0,0,0,1,0,1,1,0,0,0,0,1,no
0,1,0,0,1,0,1,1,0,0,0,0,1,no
0,0,0,0,1,0,1,1,0,0,0,0,1,no
3,1,0,0,0,0,1,1,3,0,3,3,0,no
2,1,0,0,1,0,1,1,2,0,2,2,0,no
3,0,0,0,0,0,1,1,3,0,3,3,0,no
3,0,0,0,0,0,1,1,3,0,3,3,0,no
3,0,0,0,2,0,1,1,3,0,3,3,0,no
13,0,2,2,1,3,1,1,13,0,13,13,0,no
10,0,1,1,1,2,1,1,10,0,10,10,0,no
3,0,0,0,0,0,1,1,3,0,3,3,0,no
15,0,3,1,3,1,1,1,15,0,15,15,0,no
3,0,0,0,1,0,1,1,3,0,3,3,0,no
3,0,0,0,1,0,1,1,3,0,3,3,0,no
4,0,0,0,0,0,1,1,4,0,4,4,0,no
3,0,0,0,1,0,1,1,3,0,3,3,0,no
15,0,3,1,2,1,1,1,15,0,15,15,0,no
3,0,0,0,0,0,1,1,3,0,3,3,0,no
3,1,0,0,1,0,1,1,3,0,3,3,0,no
3,0,0,0,0,0,1,1,3,0,3,3,0,no
4,1,0,0,2,1,1,1,4,0,4,4,0,no
8,1,1,1,1,1,1,1,8,0,8,8,0,no
8,2,1,1,1,1,1,1,8,0,8,8,0,no
3,1,0,0,1,0,1,1,3,0,3,3,0,no
3,2,0,0,1,0,1,1,3,0,3,3,0,no
3,1,0,0,1,0,1,1,3,0,3,3,0,no
3,2,0,0,1,0,1,1,3,0,3,3,0,no
3,1,0,0,1,0,1,1,3,0,3,3,0,no
3,2,0,0,1,0,1,1,3,0,3,3,0,no
3,1,0,0,1,0,1,1,3,0,3,3,0,no
3,2,0,0,1,0,1,1,3,0,3,3,0,no
3,0,0,0,0,0,1,1,3,0,3,3,0,no
3,0,0,0,2,0,1,1,3,0,3,3,0,no
10,1,2,1,2,0,1,1,10,0,10,10,0,no
3,0,0,0,0,0,1,1,3,0,3,3,0,no
4,1,0,0,0,0,1,1,4,0,4,4,0,no
7,0,1,1,2,1,1,1,7,0,7,7,0,no
7,0,1,1,2,1,1,1,7,0,7,7,0,no
16,0,2,1,7,3,1,1,16,0,16,16,0,no
8,0,0,0,2,0,1,1,8,0,8,8,0,no
6,0,0,0,1,0,1,1,6,0,6,6,0,no
6,0,0,0,1,0,1,1,6,0,6,6,0,no
3,0,0,0,1,0,1,1,3,0,3,3,0,no
3,0,0,0,0,0,1,1,3,0,3,3,0,no
3,0,0,0,2,0,1,1,3,0,3,3,0,no
3,0,0,0,2,0,1,1,3,0,3,3,0,no
3,0,0,0,1,0,1,1,3,0,3,3,0,no
10,0,1,1,1,2,1,1,10,0,10,10,0,no
3,0,0,0,0,0,1,1,3,0,3,3,0,no
3,0,0,0,1,0,1,1,3,0,3,3,0,no
3,0,0,0,1,0,1,1,3,0,3,3,0,no
3,0,0,0,1,0,1,1,3,0,3,3,0,no
9,0,2,1,2,0,1,1,9,0,9,9,0,no
4,0,1,1,1,0,1,1,4,0,4,4,0,no
33,2,6,3,1,2,1,1,33,0,33,33,0,no
8,1,1,1,2,0,1,1,8,0,8,8,0,no
12,1,3,1,3,0,1,1,12,0,12,12,0,no
9,1,1,1,0,0,1,1,9,0,9,9,0,no
5,1,0,0,0,0,1,1,5,0,5,5,0,no
6,1,0,0,0,0,1,1,6,0,6,6,0,no
0,0,0,0,0,0,1,1,0,0,0,0,0,no
0,0,0,0,0,0,1,1,0,0,0,0,0,no
0,0,0,0,0,0,1,1,0,0,0,0,0,no
0,0,0,0,0,0,1,1,0,0,0,0,0,no
3,1,0,0,0,0,1,1,3,0,3,3,0,no
2,1,0,0,1,0,1,1,2,0,2,2,0,no
3,0,0,0,0,0,1,1,3,0,3,3,0,no
3,0,0,0,0,0,1,1,3,0,3,3,0,no
3,0,0,0,2,0,1,1,3,0,3,3,0,no
3,1,0,0,1,0,1,1,3,0,3,3,0,no
3,0,0,0,0,0,1,1,3,0,3,3,0,no
3,0,0,0,1,0,1,1,3,0,3,3,0,no
3,1,0,0,1,0,1,1,3,0,3,3,0,no
3,0,0,0,1,0,1,1,3,0,3,3,0,no
12,0,2,1,1,2,1,1,12,0,12,12,0,no
3,0,0,0,0,0,1,1,3,0,3,3,0,no
3,0,0,0,1,0,1,1,3,0,3,3,0,no
7,0,1,1,2,1,1,1,7,0,7,7,0,no
3,0,0,0,0,0,1,1,3,0,3,3,0,no
3,1,0,0,1,0,1,1,3,0,3,3,0,no
3,0,0,0,0,0,1,1,3,0,3,3,0,no
4,1,0,0,2,1,1,1,4,0,4,4,0,no
8,1,1,1,1,1,1,1,8,0,8,8,0,no
8,2,1,1,1,1,1,1,8,0,8,8,0,no
3,1,0,0,1,0,1,1,3,0,3,3,0,no
3,2,0,0,1,0,1,1,3,0,3,3,0,no
3,1,0,0,1,0,1,1,3,0,3,3,0,no
3,2,0,0,1,0,1,1,3,0,3,3,0,no
3,1,0,0,1,0,1,1,3,0,3,3,0,no
3,2,0,0,1,0,1,1,3,0,3,3,0,no
3,1,0,0,1,0,1,1,3,0,3,3,0,no
3,2,0,0,1,0,1,1,3,0,3,3,0,no
3,0,0,0,0,0,1,1,3,0,3,3,0,no
3,0,0,0,2,0,1,1,3,0,3,3,0,no
7,1,1,1,0,1,1,1,7,0,7,7,0,no
3,0,0,0,0,0,1,1,3,0,3,3,0,no
4,1,0,0,0,0,1,1,4,0,4,4,0,no
10,1,1,1,2,0,1,1,10,0,10,10,0,no
13,2,2,2,1,0,1,1,13,0,13,13,0,no
10,2,1,1,1,0,1,1,10,0,10,10,0,no
13,1,2,2,1,0,1,1,13,0,13,13,0,no
10,1,1,1,1,0,1,1,10,0,10,10,0,no
3,0,0,0,2,0,1,1,3,0,3,3,0,no
3,1,0,0,2,0,1,1,3,0,3,3,0,no
7,0,1,1,2,1,1,1,7,0,7,7,0,no
7,0,1,1,2,1,1,1,7,0,7,7,0,no
15,0,2,2,7,2,1,1,15,0,15,15,0,no
10,0,1,1,1,0,1,1,10,0,10,10,0,no
10,0,1,1,1,0,1,1,10,0,10,10,0,no
3,0,0,0,1,0,1,1,3,0,3,3,0,no
3,0,0,0,0,0,1,1,3,0,3,3,0,no
6,0,1,1,2,0,1,1,6,0,6,6,0,no
3,0,0,0,2,0,1,1,3,0,3,3,0,no
3,0,0,0,2,0,1,1,3,0,3,3,0,no
3,0,0,0,1,0,1,1,3,0,3,3,0,no
7,1,1,1,1,0,1,1,7,0,7,7,0,no
3,1,0,0,1,0,1,1,3,0,3,3,0,no
3,0,0,0,1,0,1,1,3,0,3,3,0,no
7,0,1,1,0,0,1,1,7,0,7,7,0,no
7,0,1,1,7,0,1,1,7,0,7,7,0,no
7,0,1,1,1,0,1,1,7,0,7,7,0,no
7,1,1,1,1,0,1,1,7,0,7,7,0,no
7,0,1,1,1,0,1,1,7,0,7,7,0,no
3,0,0,0,1,0,1,1,3,0,3,3,0,no
3,0,0,0,1,0,1,1,3,0,3,3,0,no
5,0,1,1,0,0,1,1,5,0,5,5,0,no
28,2,5,3,3,3,1,1,28,0,28,28,0,no
8,1,1,1,2,0,1,1,8,0,8,8,0,no
30,1,7,3,5,0,1,1,30,0,30,30,0,no
10,1,1,1,0,0,1,1,10,0,10,10,0,no
13,2,2,2,1,0,1,1,13,0,13,13,0,no
10,2,1,1,1,0,1,1,10,0,10,10,0,no
3,1,0,0,0,0,1,1,3,0,3,3,0,no
2,1,0,0,1,0,1,1,2,0,2,2,0,no
3,0,0,0,0,0,1,1,3,0,3,3,0,no
3,0,0,0,0,0,1,1,3,0,3,3,0,no
3,0,0,0,2,0,1,1,3,0,3,3,0,no
13,0,2,2,1,3,1,1,13,0,13,13,0,no
10,0,1,1,1,2,1,1,10,0,10,10,0,no
15,0,3,1,3,1,1,1,15,0,15,15,0,no
3,0,0,0,0,0,1,1,3,0,3,3,0,no
3,0,0,0,1,0,1,1,3,0,3,3,0,no
3,0,0,0,1,0,1,1,3,0,3,3,0,no
4,0,0,0,0,0,1,1,4,0,4,4,0,no
3,0,0,0,1,0,1,1,3,0,3,3,0,no
7,0,1,1,2,1,1,1,7,0,7,7,0,no
3,0,0,0,0,0,1,1,3,0,3,3,0,no
3,1,0,0,1,0,1,1,3,0,3,3,0,no
3,0,0,0,0,0,1,1,3,0,3,3,0,no
4,1,0,0,2,1,1,1,4,0,4,4,0,no
8,1,1,1,1,1,1,1,8,0,8,8,0,no
8,2,1,1,1,1,1,1,8,0,8,8,0,no
3,1,0,0,1,0,1,1,3,0,3,3,0,no
3,2,0,0,1,0,1,1,3,0,3,3,0,no
3,1,0,0,1,0,1,1,3,0,3,3,0,no
3,2,0,0,1,0,1,1,3,0,3,3,0,no
3,1,0,0,1,0,1,1,3,0,3,3,0,no
3,2,0,0,1,0,1,1,3,0,3,3,0,no
3,1,0,0,1,0,1,1,3,0,3,3,0,no
3,2,0,0,1,0,1,1,3,0,3,3,0,no
3,0,0,0,0,0,1,1,3,0,3,3,0,no
3,0,0,0,2,0,1,1,3,0,3,3,0,no
10,1,2,1,2,0,1,1,10,0,10,10,0,no
3,0,0,0,0,0,1,1,3,0,3,3,0,no
4,1,0,0,0,0,1,1,4,0,4,4,0,no
7,0,1,1,2,1,1,1,7,0,7,7,0,no
7,0,1,1,2,1,1,1,7,0,7,7,0,no
16,0,2,1,7,3,1,1,16,0,16,16,0,no
8,0,0,0,2,0,1,1,8,0,8,8,0,no
6,0,0,0,1,0,1,1,6,0,6,6,0,no
6,0,0,0,1,0,1,1,6,0,6,6,0,no
3,0,0,0,1,0,1,1,3,0,3,3,0,no
3,0,0,0,0,0,1,1,3,0,3,3,0,no
3,0,0,0,2,0,1,1,3,0,3,3,0,no
3,0,0,0,2,0,1,1,3,0,3,3,0,no
3,0,0,0,1,0,1,1,3,0,3,3,0,no
10,0,1,1,1,2,1,1,10,0,10,10,0,no
3,0,0,0,0,0,1,1,3,0,3,3,0,no
3,0,0,0,1,0,1,1,3,0,3,3,0,no
3,0,0,0,1,0,1,1,3,0,3,3,0,no
3,0,0,0,1,0,1,1,3,0,3,3,0,no
3,0,0,0,1,0,1,1,3,0,3,3,0,no
4,0,1,1,1,0,1,1,4,0,4,4,0,no
33,2,6,3,1,2,1,1,33,0,33,33,0,no
8,1,1,1,2,0,1,1,8,0,8,8,0,no
12,1,3,1,3,0,1,1,12,0,12,12,0,no
9,1,1,1,0,0,1,1,9,0,9,9,0,no
5,1,0,0,0,0,1,1,5,0,5,5,0,no
9,1,1,1,0,0,1,1,9,0,9,9,0,no
0,0,0,0,0,0,1,1,0,0,0,0,0,no
0,0,0,0,0,0,1,1,0,0,0,0,0,no
0,0,0,0,0,0,1,1,0,0,0,0,0,no
0,0,0,0,0,0,1,1,0,0,0,0,0,no
0,1,0,0,1,0,1,1,0,0,0,0,0,no
0,0,0,0,0,0,1,1,0,0,0,0,0,no
0,0,0,0,1,0,1,1,0,0,0,0,0,no
0,1,0,0,1,0,1,1,0,0,0,0,0,no
0,0,0,0,1,0,1,1,0,0,0,0,0,no
3,1,0,0,0,0,1,1,3,0,3,3,1,no
2,1,0,0,1,0,1,1,2,0,2,2,1,no
3,0,0,0,0,0,1,1,3,0,3,3,1,no
3,0,0,0,0,0,1,1,3,0,3,3,1,no
3,0,0,0,0,0,1,1,3,0,3,3,1,no
3,0,0,0,2,0,1,1,3,0,3,3,1,no
3,0,0,0,1,0,1,1,3,0,3,3,0,no
3,0,0,0,1,0,1,1,3,0,3,3,0,no
3,0,0,0,1,0,1,1,3,0,3,3,1,no
3,0,0,0,1,0,1,1,3,0,3,3,1,no
21,0,5,1,5,1,3,1,22,1,18,7.666667,1,no
3,0,0,0,0,0,1,1,3,0,3,3,1,no
3,0,0,0,1,0,2,1,4,1,3,2.5,1,no
3,0,0,0,1,0,1,1,3,0,3,3,0,no
3,0,0,0,1,0,2,1,4,1,3,2.5,1,no
3,0,0,0,1,0,2,1,4,1,3,2.5,1,no
6,0,0,0,2,0,3,1,6,0,3,2,1,no
3,0,0,0,1,0,1,1,3,0,3,3,1,no
17,0,4,2,2,1,2,1,17,0,9,8.5,1,no
3,0,0,0,0,0,1,1,3,0,3,3,1,no
3,1,0,0,1,0,1,1,3,0,3,3,1,no
3,0,0,0,0,0,1,1,3,0,3,3,1,no
4,1,0,0,2,1,1,1,4,0,4,4,1,no
8,1,1,1,1,1,1,1,8,0,8,8,1,no
8,2,1,1,1,1,1,1,8,0,8,8,1,no
3,1,0,0,1,0,1,1,3,0,3,3,1,no
3,2,0,0,1,0,1,1,3,0,3,3,1,no
3,1,0,0,1,0,1,1,3,0,3,3,1,no
3,2,0,0,1,0,1,1,3,0,3,3,1,no
3,1,0,0,1,0,1,1,3,0,3,3,1,no
3,2,0,0,1,0,1,1,3,0,3,3,1,no
3,1,0,0,1,0,1,1,3,0,3,3,1,no
3,2,0,0,1,0,1,1,3,0,3,3,1,no
3,0,0,0,0,0,1,1,3,0,3,3,1,no
3,0,0,0,2,0,1,1,3,0,3,3,1,no
16,1,4,1,4,0,3,1,17,1,13,6,1,no
3,0,0,0,0,0,2,1,3,0,2,1.5,1,no
4,1,0,0,0,0,1,1,4,0,4,4,1,no
7,0,1,1,2,1,2,1,7,0,6,3.5,1,no
7,0,1,1,2,1,2,1,7,0,6,3.5,1,no
32,0,6,1,9,3,3,1,32,0,16,10.666667,1,no
20,0,2,1,6,0,3,1,20,0,7,6.666667,1,no
6,0,0,0,1,0,2,1,6,0,5,3,1,no
10,0,1,1,2,0,1,1,10,0,10,10,0,no
10,0,1,1,2,0,2,1,10,0,5,5,1,no
6,0,0,0,1,0,2,1,6,0,5,3,1,no
3,0,0,0,1,0,2,1,4,1,3,2.5,1,no
3,0,0,0,0,0,2,1,5,2,5,3.5,1,no
3,0,0,0,0,0,2,1,4,1,3,2.5,1,no
3,0,0,0,2,0,1,1,3,0,3,3,1,no
3,0,0,0,2,0,1,1,3,0,3,3,1,no
3,0,0,0,1,0,1,1,3,0,3,3,1,no
7,0,1,1,1,0,1,1,7,0,7,7,0,no
5,0,0,0,1,0,1,1,5,0,5,5,0,no
7,0,1,1,6,0,1,1,7,0,7,7,0,no
7,0,1,1,1,0,1,1,7,0,7,7,0,no
7,0,1,1,1,0,2,1,7,0,4,3.5,1,no
5,0,0,0,1,0,1,1,5,0,5,5,1,no
7,0,1,1,6,0,1,1,7,0,7,7,1,no
7,0,1,1,1,0,1,1,7,0,7,7,1,no
3,0,0,0,0,0,2,1,4,1,3,2.5,1,no
3,0,0,0,1,0,2,1,4,1,3,2.5,1,no
3,0,0,0,1,0,1,1,3,0,3,3,0,no
3,0,0,0,1,0,2,1,4,1,3,2.5,1,no
3,0,0,0,1,0,2,1,4,1,3,2.5,1,no
3,0,0,0,1,0,1,1,3,0,3,3,1,no
11,0,3,2,1,0,2,1,11,0,8,5.5,1,no
6,0,1,1,0,0,2,1,6,0,5,3,1,no
53,2,10,3,5,4,3,1,53,0,39,17.666667,1,no
8,1,1,1,2,0,1,1,8,0,8,8,1,no
18,1,5,1,3,0,2,1,18,0,15,9,1,no
14,1,2,2,4,0,1,1,14,0,14,14,0,no
14,1,2,2,4,0,2,1,14,0,9,7,1,no
9,1,1,1,0,0,2,1,9,0,8,4.5,1,no
13,1,2,2,1,0,1,1,13,0,13,13,0,no
10,1,1,1,1,0,1,1,10,0,10,10,0,no
13,1,2,2,1,0,2,1,13,0,8,6.5,1,no
10,1,1,1,1,0,2,1,10,0,5,5,1,no
9,1,1,1,0,0,2,1,9,0,8,4.5,1,no
3,1,0,0,0,0,1,1,3,0,3,3,0,no
2,1,0,0,1,0,1,1,2,0,2,2,0,no
3,0,0,0,0,0,1,1,3,0,3,3,0,no
3,0,0,0,0,0,1,1,3,0,3,3,0,no
3,0,0,0,2,0,1,1,3,0,3,3,0,no
13,0,2,2,1,3,1,1,13,0,13,13,0,no
10,0,1,1,1,2,1,1,10,0,10,10,0,no
3,0,0,0,1,0,1,1,3,0,3,3,0,no
3,0,0,0,1,0,1,1,3,0,3,3,0,no
15,0,3,1,3,1,1,1,15,0,15,15,0,no
3,0,0,0,1,0,1,1,3,0,3,3,0,no
3,0,0,0,1,0,1,1,3,0,3,3,0,no
4,0,0,0,1,0,1,1,4,0,4,4,0,no
3,0,0,0,1,0,1,1,3,0,3,3,0,no
7,0,1,1,2,1,1,1,7,0,7,7,0,no
3,0,0,0,0,0,1,1,3,0,3,3,0,no
3,1,0,0,1,0,1,1,3,0,3,3,0,no
3,0,0,0,0,0,1,1,3,0,3,3,0,no
4,1,0,0,2,1,1,1,4,0,4,4,0,no
8,1,1,1,1,1,1,1,8,0,8,8,0,no
8,2,1,1,1,1,1,1,8,0,8,8,0,no
3,1,0,0,1,0,1,1,3,0,3,3,0,no
3,2,0,0,1,0,1,1,3,0,3,3,0,no
3,1,0,0,1,0,1,1,3,0,3,3,0,no
3,2,0,0,1,0,1,1,3,0,3,3,0,no
3,1,0,0,1,0,1,1,3,0,3,3,0,no
3,2,0,0,1,0,1,1,3,0,3,3,0,no
3,1,0,0,1,0,1,1,3,0,3,3,0,no
3,2,0,0,1,0,1,1,3,0,3,3,0,no
3,0,0,0,0,0,1,1,3,0,3,3,0,no
3,0,0,0,2,0,1,1,3,0,3,3,0,no
10,1,2,1,2,0,1,1,10,0,10,10,0,no
3,0,0,0,0,0,1,1,3,0,3,3,0,no
4,1,0,0,0,0,1,1,4,0,4,4,0,no
7,0,1,1,2,1,1,1,7,0,7,7,0,no
7,0,1,1,2,1,1,1,7,0,7,7,0,no
20,0,3,1,7,3,1,1,20,0,20,20,0,no
12,0,1,1,3,0,1,1,12,0,12,12,0,no
6,0,0,0,1,0,1,1,6,0,6,6,0,no
10,0,1,1,2,0,1,1,10,0,10,10,0,no
3,0,0,0,1,0,1,1,3,0,3,3,0,no
3,0,0,0,0,0,1,1,3,0,3,3,0,no
3,0,0,0,2,0,1,1,3,0,3,3,0,no
3,0,0,0,2,0,1,1,3,0,3,3,0,no
3,0,0,0,1,0,1,1,3,0,3,3,0,no
10,0,1,1,1,2,1,1,10,0,10,10,0,no
7,0,1,1,1,0,1,1,7,0,7,7,0,no
5,0,0,0,1,0,1,1,5,0,5,5,0,no
7,0,1,1,6,0,1,1,7,0,7,7,0,no
7,0,1,1,1,0,1,1,7,0,7,7,0,no
3,0,0,0,1,0,1,1,3,0,3,3,0,no
3,0,0,0,1,0,1,1,3,0,3,3,0,no
3,0,0,0,1,0,1,1,3,0,3,3,0,no
3,0,0,0,1,0,1,1,3,0,3,3,0,no
5,0,1,1,0,0,1,1,5,0,5,5,0,no
37,2,7,3,3,3,1,1,37,0,37,37,0,no
8,1,1,1,2,0,1,1,8,0,8,8,0,no
12,1,3,1,3,0,1,1,12,0,12,12,0,no
14,1,2,2,4,0,1,1,14,0,14,14,0,no
9,1,1,1,0,0,1,1,9,0,9,9,0,no
5,1,0,0,0,0,1,1,5,0,5,5,0,no
13,1,2,2,1,0,1,1,13,0,13,13,0,no
10,1,1,1,1,0,1,1,10,0,10,10,0,no
0,0,0,0,0,0,1,1,0,0,0,0,0,no
0,0,0,0,1,0,1,1,0,0,0,0,0,no
0,0,0,0,1,0,1,1,0,0,0,0,0,no
0,0,0,0,0,0,1,1,0,0,0,0,0,no
0,0,0,0,0,0,1,1,0,0,0,0,0,no
0,0,0,0,0,0,1,1,0,0,0,0,1,no
0,0,0,0,1,0,1,1,0,0,0,0,0,no
0,0,0,0,1,0,1,1,0,0,0,0,0,no
0,0,0,0,1,0,1,1,0,0,0,0,1,no
0,0,0,0,1,0,1,1,0,0,0,0,1,no
0,0,0,0,0,0,1,1,0,0,0,0,1,no
0,0,0,0,0,0,1,1,0,0,0,0,1,no
0,0,0,0,0,0,1,1,0,0,0,0,0,no
0,0,0,0,0,0,1,1,0,0,0,0,1,no
0,0,0,0,0,0,1,1,0,0,0,0,1,no
3,1,0,0,0,0,1,1,3,0,3,3,1,no
2,1,0,0,1,0,1,1,2,0,2,2,1,no
3,0,0,0,0,0,1,1,3,0,3,3,1,no
3,0,0,0,0,0,1,1,3,0,3,3,1,no
3,0,0,0,2,0,1,1,3,0,3,3,1,no
3,0,0,0,0,0,1,1,3,0,3,3,1,no
3,1,0,0,1,0,1,1,3,0,3,3,1,no
3,0,0,0,0,0,1,1,3,0,3,3,1,no
3,0,0,0,1,0,1,1,3,0,3,3,1,no
3,1,0,0,1,0,1,1,3,0,3,3,1,no
3,0,0,0,1,0,1,1,3,0,3,3,1,no
15,0,3,1,2,2,2,1,16,1,15,8.5,1,no
3,0,0,0,1,0,2,1,4,1,3,2.5,1,no
4,0,0,0,0,0,2,1,4,0,2,2,1,no
3,0,0,0,1,0,1,1,3,0,3,3,1,no
13,0,3,2,2,2,2,1,13,0,7,6.5,1,no
3,0,0,0,0,0,1,1,3,0,3,3,1,no
3,1,0,0,1,0,1,1,3,0,3,3,1,no
3,0,0,0,0,0,1,1,3,0,3,3,1,no
4,1,0,0,2,1,1,1,4,0,4,4,1,no
8,1,1,1,1,1,1,1,8,0,8,8,1,no
8,2,1,1,1,1,1,1,8,0,8,8,1,no
3,1,0,0,1,0,1,1,3,0,3,3,1,no
3,2,0,0,1,0,1,1,3,0,3,3,1,no
3,1,0,0,1,0,1,1,3,0,3,3,1,no
3,2,0,0,1,0,1,1,3,0,3,3,1,no
3,1,0,0,1,0,1,1,3,0,3,3,1,no
3,2,0,0,1,0,1,1,3,0,3,3,1,no
3,1,0,0,1,0,1,1,3,0,3,3,1,no
3,2,0,0,1,0,1,1,3,0,3,3,1,no
3,0,0,0,0,0,1,1,3,0,3,3,1,no
3,0,0,0,2,0,1,1,3,0,3,3,1,no
10,1,2,1,1,1,2,1,11,1,10,6,1,no
3,0,0,0,0,0,2,1,3,0,2,1.5,1,no
4,1,0,0,0,0,1,1,4,0,4,4,1,no
10,1,1,1,2,0,2,1,10,0,7,5,1,no
13,2,2,2,1,0,1,1,13,0,13,13,1,no
10,2,1,1,1,0,1,1,10,0,10,10,1,no
13,1,2,2,1,0,2,1,13,0,10,6.5,1,no
10,1,1,1,1,0,2,1,10,0,7,5,1,no
3,0,0,0,2,0,1,1,3,0,3,3,1,no
3,1,0,0,2,0,1,1,3,0,3,3,1,no
7,0,1,1,2,1,2,1,7,0,6,3.5,1,no
7,0,1,1,2,1,2,1,7,0,6,3.5,1,no
21,0,3,2,8,3,2,1,21,0,11,10.5,1,no
12,0,1,1,2,0,2,1,12,0,7,6,1,no
6,0,0,0,1,0,2,1,6,0,5,3,1,no
10,0,1,1,1,0,2,1,10,0,6,5,1,no
3,0,0,0,1,0,2,1,4,1,3,2.5,1,no
3,0,0,0,0,0,2,1,5,2,5,3.5,1,no
6,0,1,1,2,0,1,1,6,0,6,6,1,no
3,0,0,0,2,0,1,1,3,0,3,3,1,no
3,0,0,0,2,0,1,1,3,0,3,3,1,no
3,0,0,0,1,0,1,1,3,0,3,3,1,no
3,0,0,0,0,0,2,1,4,1,3,2.5,1,no
7,1,1,1,1,0,2,1,7,0,4,3.5,1,no
3,1,0,0,1,0,1,1,3,0,3,3,1,no
3,0,0,0,1,0,1,1,3,0,3,3,1,no
7,0,1,1,0,0,2,1,7,0,4,3.5,1,no
7,0,1,1,7,0,1,1,7,0,7,7,1,no
7,0,1,1,1,0,2,1,7,0,4,3.5,1,no
7,1,1,1,1,0,1,1,7,0,7,7,1,no
7,0,1,1,1,0,1,1,7,0,7,7,1,no
3,0,0,0,1,0,2,1,4,1,3,2.5,1,no
3,0,0,0,1,0,1,1,3,0,3,3,1,no
8,0,2,2,1,1,2,1,8,0,5,4,1,no
5,0,1,1,0,0,1,1,5,0,5,5,1,no
34,2,6,3,3,3,2,1,34,0,31,17,1,no
8,1,1,1,2,0,1,1,8,0,8,8,1,no
33,1,8,3,5,0,2,1,33,0,18,16.5,1,no
10,1,1,1,0,0,1,1,10,0,10,10,1,no
6,1,0,0,0,0,2,1,6,0,5,3,1,no
13,2,2,2,1,0,2,1,13,0,7,6.5,1,no
10,2,1,1,1,0,2,1,10,0,6,5,1,no
0,0,0,0,0,0,1,1,0,0,0,0,1,no
0,1,0,0,1,0,1,1,0,0,0,0,1,no
0,0,0,0,0,0,1,1,0,0,0,0,1,no
0,0,0,0,1,0,1,1,0,0,0,0,1,no
0,1,0,0,1,0,1,1,0,0,0,0,1,no
0,0,0,0,1,0,1,1,0,0,0,0,1,no
0,0,0,0,0,0,1,1,0,0,0,0,1,no
4,2,0,0,1,0,1,1,4,0,4,4,1,no
3,0,0,0,1,0,1,1,3,0,3,3,1,no
3,0,0,0,0,0,1,1,3,0,3,3,1,no
3,0,0,0,0,0,1,1,3,0,3,3,1,no
3,0,0,0,0,0,1,1,3,0,3,3,1,no
3,0,0,0,0,0,1,1,3,0,3,3,1,no
6,1,1,1,1,0,1,1,6,0,6,6,1,no
20,1,8,1,0,0,2,1,20,0,18,10,1,no
3,1,0,0,0,0,1,1,3,0,3,3,1,no
4,2,0,0,1,0,1,1,4,0,4,4,1,no
3,0,0,0,1,0,1,1,3,0,3,3,1,no
3,0,0,0,0,0,1,1,3,0,3,3,1,no
3,0,0,0,0,0,1,1,3,0,3,3,1,no
3,0,0,0,0,0,1,1,3,0,3,3,1,no
3,0,0,0,0,0,1,1,3,0,3,3,1,no
6,1,1,1,1,0,1,1,6,0,6,6,1,no
8,1,2,1,0,0,1,1,8,0,8,8,1,no
3,1,0,0,0,0,1,1,3,0,3,3,1,no
3,1,0,0,0,0,1,1,3,0,3,3,1,no
2,1,0,0,1,0,1,1,2,0,2,2,1,no
3,0,0,0,1,0,1,1,3,0,3,3,0,no
3,0,0,0,1,0,1,1,3,0,3,3,0,no
3,0,0,0,1,0,1,1,3,0,3,3,1,no
3,0,0,0,1,0,1,1,3,0,3,3,1,no
3,0,0,0,0,0,1,1,3,0,3,3,1,no
3,0,0,0,0,0,1,1,3,0,3,3,1,no
3,0,0,0,2,0,1,1,3,0,3,3,1,no
3,0,0,0,1,0,1,1,3,0,3,3,1,no
3,0,0,0,1,0,1,1,3,0,3,3,1,no
3,0,0,0,1,0,1,1,3,0,3,3,1,no
53,0,14,1,13,3,3,1,54,1,50,18.333333,1,no
3,0,0,0,0,0,1,1,3,0,3,3,1,no
3,0,0,0,1,0,1,1,3,0,3,3,1,no
3,0,0,0,1,0,1,1,3,0,3,3,1,no
3,0,0,0,1,0,1,1,3,0,3,3,1,no
3,0,0,0,1,0,1,1,3,0,3,3,1,no
3,0,0,0,1,0,1,1,3,0,3,3,1,no
3,0,0,0,1,0,1,1,3,0,3,3,1,no
3,0,0,0,0,0,1,1,3,0,3,3,1,no
3,1,0,0,0,0,1,1,3,0,3,3,1,no
3,0,0,0,0,0,1,1,3,0,3,3,1,no
3,0,0,0,0,0,1,1,3,0,3,3,1,no
3,0,0,0,0,0,1,1,3,0,3,3,1,no
3,0,0,0,1,0,1,1,3,0,3,3,1,no
3,0,0,0,1,0,1,1,3,0,3,3,1,no
3,0,0,0,1,0,1,1,3,0,3,3,1,no
3,0,0,0,1,0,1,1,3,0,3,3,0,no
3,0,0,0,1,0,2,1,4,1,3,2.5,1,no
3,0,0,0,1,0,2,1,4,1,3,2.5,1,no
3,0,0,0,1,0,2,1,4,1,3,2.5,1,no
3,0,0,0,1,0,2,1,4,1,3,2.5,1,no
3,0,0,0,1,0,2,1,4,1,3,2.5,1,no
3,0,0,0,1,0,2,1,4,1,3,2.5,1,no
3,0,0,0,1,0,2,1,4,1,3,2.5,1,no
3,0,0,0,1,0,2,1,4,1,3,2.5,1,no
3,0,0,0,1,0,2,1,4,1,3,2.5,1,no
3,0,0,0,1,0,2,1,4,1,3,2.5,1,no
3,0,0,0,1,0,2,1,4,1,3,2.5,1,no
16,0,0,0,10,0,3,1,16,0,10,5.333333,1,no
3,0,0,0,1,0,1,1,3,0,3,3,1,no
65,0,19,2,2,1,3,1,65,0,35,21.666667,1,no
3,0,0,0,0,0,1,1,3,0,3,3,1,no
3,1,0,0,1,0,1,1,3,0,3,3,1,no
3,0,0,0,0,0,1,1,3,0,3,3,1,no
4,1,0,0,2,1,1,1,4,0,4,4,1,no
8,1,1,1,1,1,1,1,8,0,8,8,1,no
8,2,1,1,1,1,1,1,8,0,8,8,1,no
3,1,0,0,1,0,1,1,3,0,3,3,1,no
3,2,0,0,1,0,1,1,3,0,3,3,1,no
3,1,0,0,1,0,1,1,3,0,3,3,1,no
3,2,0,0,1,0,1,1,3,0,3,3,1,no
3,1,0,0,1,0,1,1,3,0,3,3,1,no
3,2,0,0,1,0,1,1,3,0,3,3,1,no
3,1,0,0,1,0,1,1,3,0,3,3,1,no
3,2,0,0,1,0,1,1,3,0,3,3,1,no
3,0,0,0,0,0,1,1,3,0,3,3,1,no
3,0,0,0,2,0,1,1,3,0,3,3,1,no
43,1,13,1,12,1,3,1,44,1,40,15,1,no
3,0,0,0,0,0,2,1,3,0,2,1.5,1,no
4,1,0,0,0,0,1,1,4,0,4,4,1,no
6,1,0,0,1,0,2,1,7,1,7,4,1,no
9,1,1,1,0,0,2,1,10,1,10,5.5,1,no
7,0,1,1,2,1,2,1,7,0,6,3.5,1,no
7,0,1,1,2,1,2,1,7,0,6,3.5,1,no
89,0,20,1,19,3,3,1,89,0,70,29.666667,1,no
59,0,7,1,23,0,3,1,59,0,46,19.666667,1,no
10,0,1,1,2,0,1,1,10,0,10,10,0,no
10,0,1,1,2,0,2,1,10,0,5,5,1,no
6,0,0,0,2,0,2,1,6,0,5,3,1,no
10,0,1,1,2,0,2,1,10,0,5,5,1,no
6,0,0,0,1,0,2,1,6,0,5,3,1,no
10,0,1,1,2,0,2,1,10,0,5,5,1,no
10,0,1,1,2,0,2,1,10,0,5,5,1,no
10,0,1,1,2,0,2,1,10,0,5,5,1,no
6,0,0,0,1,0,2,1,6,0,5,3,1,no
7,0,0,0,2,0,2,1,7,0,4,3.5,1,no
6,0,0,0,1,0,2,1,6,0,5,3,1,no
6,0,0,0,2,0,2,1,6,0,5,3,1,no
10,0,1,1,2,0,2,1,10,0,5,5,1,no
3,0,0,0,1,0,2,1,4,1,3,2.5,1,no
3,0,0,0,0,0,2,1,5,2,5,3.5,1,no
6,0,1,1,1,0,1,1,6,0,6,6,1,no
7,0,1,1,1,0,1,1,7,0,7,7,0,no
5,0,0,0,1,0,1,1,5,0,5,5,0,no
7,0,1,1,6,0,1,1,7,0,7,7,0,no
7,0,1,1,1,0,1,1,7,0,7,7,0,no
7,0,1,1,1,0,2,1,7,0,4,3.5,1,no
5,0,0,0,1,0,1,1,5,0,5,5,1,no
7,0,1,1,6,0,1,1,7,0,7,7,1,no
7,0,1,1,1,0,1,1,7,0,7,7,1,no
3,0,0,0,2,0,1,1,3,0,3,3,1,no
3,0,0,0,2,0,1,1,3,0,3,3,1,no
3,0,0,0,1,0,1,1,3,0,3,3,1,no
3,0,0,0,1,0,2,1,4,1,3,2.5,1,no
7,0,1,1,1,0,2,1,7,0,4,3.5,1,no
5,0,0,0,1,0,1,1,5,0,5,5,1,no
7,0,1,1,6,0,1,1,7,0,7,7,1,no
7,0,1,1,1,0,1,1,7,0,7,7,1,no
3,0,0,0,0,0,2,1,4,1,3,2.5,1,no
7,0,1,1,1,0,2,1,7,0,4,3.5,1,no
5,0,0,0,1,0,1,1,5,0,5,5,1,no
7,0,1,1,6,0,1,1,7,0,7,7,1,no
7,0,1,1,1,0,1,1,7,0,7,7,1,no
7,0,1,1,1,0,2,1,7,0,4,3.5,1,no
5,0,0,0,1,0,1,1,5,0,5,5,1,no
7,0,1,1,6,0,1,1,7,0,7,7,1,no
7,0,1,1,1,0,1,1,7,0,7,7,1,no
7,0,1,1,1,0,2,1,7,0,4,3.5,1,no
5,0,0,0,1,0,1,1,5,0,5,5,1,no
7,0,1,1,6,0,1,1,7,0,7,7,1,no
7,0,1,1,1,0,1,1,7,0,7,7,1,no
3,0,0,0,0,0,2,1,4,1,3,2.5,1,no
3,1,0,0,0,0,2,1,4,1,3,2.5,1,no
3,0,0,0,0,0,2,1,4,1,3,2.5,1,no
3,0,0,0,0,0,2,1,4,1,3,2.5,1,no
3,0,0,0,0,0,2,1,4,1,3,2.5,1,no
3,0,0,0,1,0,2,1,4,1,3,2.5,1,no
7,0,1,1,1,0,2,1,7,0,4,3.5,1,no
5,0,0,0,1,0,1,1,5,0,5,5,1,no
7,0,1,1,6,0,1,1,7,0,7,7,1,no
7,0,1,1,1,0,1,1,7,0,7,7,1,no
3,0,0,0,1,0,1,1,3,0,3,3,0,no
3,0,0,0,1,0,2,1,4,1,3,2.5,1,no
3,0,0,0,1,0,2,1,4,1,3,2.5,1,no
3,0,0,0,1,0,2,1,4,1,3,2.5,1,no
3,0,0,0,1,0,2,1,4,1,3,2.5,1,no
3,0,0,0,1,0,2,1,4,1,3,2.5,1,no
3,0,0,0,1,0,2,1,4,1,3,2.5,1,no
3,0,0,0,1,0,2,1,4,1,3,2.5,1,no
3,0,0,0,1,0,2,1,4,1,3,2.5,1,no
3,0,0,0,1,0,2,1,4,1,3,2.5,1,no
3,0,0,0,1,0,2,1,4,1,3,2.5,1,no
3,0,0,0,1,0,2,1,4,1,3,2.5,1,no
3,0,0,0,1,0,1,1,3,0,3,3,1,no
50,0,18,2,1,0,3,1,50,0,42,16.666667,1,no
11,0,1,1,0,0,2,1,11,0,10,5.5,1,no
14,1,2,2,4,0,1,1,14,0,14,14,0,no
14,1,2,2,4,0,2,1,14,0,9,7,1,no
139,2,26,3,19,13,3,1,139,0,121,46.333333,1,no
8,1,1,1,2,0,1,1,8,0,8,8,1,no
52,1,15,2,4,0,3,1,52,0,45,17.333333,1,no
14,1,2,2,4,0,2,1,14,0,9,7,1,no
14,1,2,2,4,0,2,1,14,0,9,7,1,no
14,1,2,2,4,0,2,1,14,0,9,7,1,no
14,1,2,2,4,0,2,1,14,0,9,7,1,no
14,1,2,2,4,0,2,1,14,0,9,7,1,no
13,1,2,2,1,0,1,1,13,0,13,13,0,no
10,1,1,1,1,0,1,1,10,0,10,10,0,no
13,1,2,2,1,0,2,1,13,0,8,6.5,1,no
10,1,1,1,1,0,2,1,10,0,5,5,1,no
9,1,1,1,1,0,2,1,9,0,8,4.5,1,no
13,1,2,2,1,0,2,1,13,0,8,6.5,1,no
10,1,1,1,1,0,2,1,10,0,5,5,1,no
6,1,0,0,0,0,2,1,6,0,5,3,1,no
13,1,2,2,1,0,2,1,13,0,8,6.5,1,no
10,1,1,1,1,0,2,1,10,0,5,5,1,no
13,1,2,2,1,0,2,1,13,0,8,6.5,1,no
10,1,1,1,1,0,2,1,10,0,5,5,1,no
13,1,2,2,1,0,2,1,13,0,8,6.5,1,no
10,1,1,1,1,0,2,1,10,0,5,5,1,no
9,1,1,1,0,0,2,1,9,0,8,4.5,1,no
9,2,1,1,0,0,2,1,9,0,7,4.5,1,no
6,1,0,0,0,0,2,1,6,0,5,3,1,no
9,1,1,1,1,0,2,1,9,0,8,4.5,1,no
13,1,2,2,1,0,2,1,13,0,8,6.5,1,no
10,1,1,1,1,0,2,1,10,0,5,5,1,no
0,0,0,0,1,0,1,1,0,0,0,0,0,no
0,0,0,0,1,0,1,1,0,0,0,0,0,no
0,0,0,0,1,0,1,1,0,0,0,0,1,no
0,0,0,0,1,0,1,1,0,0,0,0,1,no
0,0,0,0,1,0,1,1,0,0,0,0,1,no
0,0,0,0,1,0,1,1,0,0,0,0,1,no
0,0,0,0,1,0,1,1,0,0,0,0,1,no
0,0,0,0,0,0,1,1,0,0,0,0,1,no
0,0,0,0,1,0,1,1,0,0,0,0,1,no
0,0,0,0,1,0,1,1,0,0,0,0,1,no
0,0,0,0,1,0,1,1,0,0,0,0,1,no
0,0,0,0,1,0,1,1,0,0,0,0,1,no
0,0,0,0,1,0,1,1,0,0,0,0,1,no
0,0,0,0,1,0,1,1,0,0,0,0,1,no
0,0,0,0,0,0,1,1,0,0,0,0,1,no
0,1,0,0,0,0,1,1,0,0,0,0,1,no
0,0,0,0,0,0,1,1,0,0,0,0,1,no
0,0,0,0,0,0,1,1,0,0,0,0,1,no
0,0,0,0,0,0,1,1,0,0,0,0,1,no
0,0,0,0,1,0,1,1,0,0,0,0,1,no
0,0,0,0,1,0,1,1,0,0,0,0,1,no
0,0,0,0,1,0,1,1,0,0,0,0,1,no
0,0,0,0,0,0,1,1,0,0,0,0,0,no
0,0,0,0,0,0,1,1,0,0,0,0,1,no
0,0,0,0,0,0,1,1,0,0,0,0,1,no
0,0,0,0,0,0,1,1,0,0,0,0,1,no
0,0,0,0,0,0,1,1,0,0,0,0,1,no
0,0,0,0,0,0,1,1,0,0,0,0,1,no
0,0,0,0,0,0,1,1,0,0,0,0,1,no
0,0,0,0,0,0,1,1,0,0,0,0,1,no
0,0,0,0,0,0,1,1,0,0,0,0,1,no
0,0,0,0,0,0,1,1,0,0,0,0,1,no
0,0,0,0,0,0,1,1,0,0,0,0,1,no
0,0,0,0,0,0,1,1,0,0,0,0,1,no
3,1,0,0,0,0,1,1,3,0,3,3,1,no
2,1,0,0,1,0,1,1,2,0,2,2,1,no
3,0,0,0,0,0,1,1,3,0,3,3,1,no
3,0,0,0,0,0,1,1,3,0,3,3,1,no
3,0,0,0,2,0,1,1,3,0,3,3,1,no
3,0,0,0,1,0,1,1,3,0,3,3,1,no
3,0,0,0,1,0,1,1,3,0,3,3,1,no
3,0,0,0,1,0,1,1,3,0,3,3,1,no
3,0,0,0,1,0,1,1,3,0,3,3,0,no
3,0,0,0,1,0,1,1,3,0,3,3,0,no
33,0,9,1,9,1,3,2,34,1,30,11.666667,1,no
3,0,0,0,1,0,1,1,3,0,3,3,1,no
13,0,2,2,1,3,2,1,13,0,10,6.5,1,no
10,0,1,1,1,2,1,1,10,0,10,10,1,no
3,0,0,0,0,0,1,1,3,0,3,3,1,no
3,0,0,0,0,0,1,1,3,0,3,3,1,no
3,0,0,0,0,0,1,1,3,0,3,3,1,no
3,0,0,0,1,0,2,1,4,1,3,2.5,1,no
3,0,0,0,1,0,2,1,4,1,3,2.5,1,no
3,0,0,0,1,0,1,1,3,0,3,3,0,no
3,0,0,0,1,0,2,1,4,1,3,2.5,1,no
3,0,0,0,1,0,2,1,4,1,3,2.5,1,no
3,0,0,0,1,0,2,1,4,1,3,2.5,1,no
3,0,0,0,1,0,2,1,4,1,3,2.5,1,no
3,0,0,0,1,0,2,1,4,1,3,2.5,1,no
10,0,0,0,4,0,3,2,10,0,5,3.333333,1,no
3,0,0,0,1,0,1,1,3,0,3,3,1,no
31,0,8,2,2,1,3,2,31,0,13,10.333333,1,no
3,0,0,0,0,0,1,1,3,0,3,3,1,no
3,1,0,0,1,0,1,1,3,0,3,3,1,no
3,0,0,0,0,0,1,1,3,0,3,3,1,no
4,1,0,0,2,1,1,1,4,0,4,4,1,no
8,1,1,1,1,1,1,1,8,0,8,8,1,no
8,2,1,1,1,1,1,1,8,0,8,8,1,no
3,1,0,0,1,0,1,1,3,0,3,3,1,no
3,2,0,0,1,0,1,1,3,0,3,3,1,no
3,1,0,0,1,0,1,1,3,0,3,3,1,no
3,2,0,0,1,0,1,1,3,0,3,3,1,no
3,1,0,0,1,0,1,1,3,0,3,3,1,no
3,2,0,0,1,0,1,1,3,0,3,3,1,no
3,1,0,0,1,0,1,1,3,0,3,3,1,no
3,2,0,0,1,0,1,1,3,0,3,3,1,no
3,0,0,0,0,0,1,1,3,0,3,3,1,no
3,0,0,0,2,0,1,1,3,0,3,3,1,no
28,1,8,1,8,0,3,2,29,1,25,10,1,no
3,0,0,0,0,0,2,1,3,0,2,1.5,1,no
4,1,0,0,0,0,1,1,4,0,4,4,1,no
7,0,1,1,2,1,2,1,7,0,6,3.5,1,no
7,0,1,1,2,1,2,1,7,0,6,3.5,1,no
48,0,10,1,13,3,3,2,48,0,32,16,1,no
28,0,2,1,12,0,3,2,28,0,15,9.333333,1,no
10,0,1,1,2,0,2,1,10,0,5,5,1,no
6,0,0,0,2,0,2,1,6,0,5,3,1,no
10,0,1,1,2,0,1,1,10,0,10,10,0,no
6,0,0,0,2,0,2,1,6,0,5,3,1,no
6,0,0,0,1,0,2,1,6,0,5,3,1,no
6,0,0,0,1,0,2,1,6,0,5,3,1,no
6,0,0,0,1,0,2,1,6,0,5,3,1,no
6,0,0,0,1,0,2,1,6,0,5,3,1,no
3,0,0,0,1,0,2,1,4,1,3,2.5,1,no
3,0,0,0,0,0,2,1,5,2,5,3.5,1,no
3,0,0,0,2,0,1,1,3,0,3,3,1,no
3,0,0,0,2,0,1,1,3,0,3,3,1,no
3,0,0,0,1,0,1,1,3,0,3,3,1,no
7,0,1,1,1,0,2,1,7,0,4,3.5,1,no
5,0,0,0,1,0,1,1,5,0,5,5,1,no
7,0,1,1,6,0,1,1,7,0,7,7,1,no
7,0,1,1,1,0,1,1,7,0,7,7,1,no
3,0,0,0,1,0,2,1,4,1,3,2.5,1,no
7,0,1,1,1,0,1,1,7,0,7,7,0,no
5,0,0,0,1,0,1,1,5,0,5,5,0,no
7,0,1,1,6,0,1,1,7,0,7,7,0,no
7,0,1,1,1,0,1,1,7,0,7,7,0,no
3,0,0,0,1,0,2,1,4,1,3,2.5,1,no
10,0,1,1,1,2,2,1,10,0,7,5,1,no
3,0,0,0,0,0,2,1,4,1,3,2.5,1,no
3,0,0,0,0,0,2,1,4,1,3,2.5,1,no
3,0,0,0,0,0,2,1,4,1,3,2.5,1,no
3,0,0,0,1,0,2,1,4,1,3,2.5,1,no
3,0,0,0,1,0,2,1,4,1,3,2.5,1,no
3,0,0,0,1,0,1,1,3,0,3,3,0,no
3,0,0,0,1,0,2,1,4,1,3,2.5,1,no
3,0,0,0,1,0,2,1,4,1,3,2.5,1,no
3,0,0,0,1,0,2,1,4,1,3,2.5,1,no
3,0,0,0,1,0,2,1,4,1,3,2.5,1,no
3,0,0,0,1,0,2,1,4,1,3,2.5,1,no
3,0,0,0,1,0,1,1,3,0,3,3,1,no
22,0,7,2,1,0,3,2,22,0,14,7.333333,1,no
6,0,1,1,0,0,2,2,6,0,5,3,1,no
89,2,16,3,9,8,3,2,89,0,71,29.666667,1,no
8,1,1,1,2,0,1,1,8,0,8,8,1,no
30,1,9,1,3,0,2,2,30,0,27,15,1,no
14,1,2,2,4,0,2,1,14,0,9,7,1,no
14,1,2,2,4,0,1,1,14,0,14,14,0,no
13,1,2,2,1,0,2,1,13,0,8,6.5,1,no
10,1,1,1,1,0,2,1,10,0,5,5,1,no
9,1,1,1,1,0,2,1,9,0,8,4.5,1,no
13,1,2,2,1,0,1,1,13,0,13,13,0,no
10,1,1,1,1,0,1,1,10,0,10,10,0,no
9,1,1,1,1,0,2,1,9,0,8,4.5,1,no
9,1,1,1,0,0,1,1,9,0,9,9,1,no
5,1,0,0,0,0,1,1,5,0,5,5,1,no
9,1,1,1,0,0,2,1,9,0,8,4.5,1,no
9,1,1,1,0,0,2,1,9,0,8,4.5,1,no
6,1,0,0,0,0,2,1,6,0,5,3,1,no
0,0,0,0,1,0,1,1,0,0,0,0,1,no
0,0,0,0,1,0,1,1,0,0,0,0,1,no
0,0,0,0,1,0,1,1,0,0,0,0,1,no
0,0,0,0,1,0,1,1,0,0,0,0,0,no
0,0,0,0,1,0,1,1,0,0,0,0,0,no
0,0,0,0,1,0,1,1,0,0,0,0,1,no
0,0,0,0,0,0,1,1,0,0,0,0,1,no
0,0,0,0,0,0,1,1,0,0,0,0,1,no
0,0,0,0,0,0,1,1,0,0,0,0,1,no
0,0,0,0,0,0,1,1,0,0,0,0,1,no
0,0,0,0,0,0,1,1,0,0,0,0,1,no
0,0,0,0,0,0,1,1,0,0,0,0,1,no
0,0,0,0,0,0,1,1,0,0,0,0,0,no
0,0,0,0,0,0,1,1,0,0,0,0,1,no
0,0,0,0,0,0,1,1,0,0,0,0,1,no
0,0,0,0,0,0,1,1,0,0,0,0,1,no
0,0,0,0,0,0,1,1,0,0,0,0,1,no
0,0,0,0,0,0,1,1,0,0,0,0,1,no
3,1,0,0,0,0,1,1,3,0,3,3,1,no
2,1,0,0,1,0,1,1,2,0,2,2,1,no
3,0,0,0,0,0,1,1,3,0,3,3,1,no
3,0,0,0,0,0,1,1,3,0,3,3,1,no
3,0,0,0,2,0,1,1,3,0,3,3,1,no
3,0,0,0,1,0,1,1,3,0,3,3,1,no
3,0,0,0,1,0,1,1,3,0,3,3,1,no
12,0,2,1,2,1,2,1,13,1,12,7,1,no
3,0,0,0,1,0,2,1,4,1,3,2.5,1,no
3,0,0,0,1,0,1,1,3,0,3,3,1,no
3,0,0,0,1,0,1,1,3,0,3,3,1,no
15,0,3,1,2,1,2,1,15,0,8,7.5,1,no
3,0,0,0,0,0,1,1,3,0,3,3,1,no
3,1,0,0,1,0,1,1,3,0,3,3,1,no
3,0,0,0,0,0,1,1,3,0,3,3,1,no
4,1,0,0,2,1,1,1,4,0,4,4,1,no
8,1,1,1,1,1,1,1,8,0,8,8,1,no
8,2,1,1,1,1,1,1,8,0,8,8,1,no
3,1,0,0,1,0,1,1,3,0,3,3,1,no
3,2,0,0,1,0,1,1,3,0,3,3,1,no
3,1,0,0,1,0,1,1,3,0,3,3,1,no
3,2,0,0,1,0,1,1,3,0,3,3,1,no
3,1,0,0,1,0,1,1,3,0,3,3,1,no
3,2,0,0,1,0,1,1,3,0,3,3,1,no
3,1,0,0,1,0,1,1,3,0,3,3,1,no
3,2,0,0,1,0,1,1,3,0,3,3,1,no
3,0,0,0,0,0,1,1,3,0,3,3,1,no
3,0,0,0,2,0,1,1,3,0,3,3,1,no
7,1,1,1,1,0,2,1,8,1,7,4.5,1,no
3,0,0,0,0,0,2,1,3,0,2,1.5,1,no
4,1,0,0,0,0,1,1,4,0,4,4,1,no
7,0,1,1,2,1,2,1,7,0,6,3.5,1,no
7,0,1,1,2,1,2,1,7,0,6,3.5,1,no
16,0,2,1,6,3,2,1,16,0,8,8,1,no
10,0,1,1,2,0,2,1,10,0,7,5,1,no
10,0,1,1,2,0,2,1,10,0,5,5,1,no
3,0,0,0,1,0,2,1,4,1,3,2.5,1,no
3,0,0,0,0,0,2,1,5,2,5,3.5,1,no
3,0,0,0,2,0,1,1,3,0,3,3,1,no
3,0,0,0,2,0,1,1,3,0,3,3,1,no
3,0,0,0,1,0,1,1,3,0,3,3,1,no
7,0,1,1,1,0,2,1,7,0,4,3.5,1,no
5,0,0,0,1,0,1,1,5,0,5,5,1,no
7,0,1,1,6,0,1,1,7,0,7,7,1,no
7,0,1,1,1,0,1,1,7,0,7,7,1,no
3,0,0,0,1,0,2,1,4,1,3,2.5,1,no
3,0,0,0,1,0,1,1,3,0,3,3,1,no
9,0,2,1,2,0,2,1,9,0,6,4.5,1,no
5,0,1,1,0,0,1,1,5,0,5,5,1,no
31,2,6,3,3,3,2,1,31,0,29,15.5,1,no
8,1,1,1,2,0,1,1,8,0,8,8,1,no
9,1,2,1,3,0,1,1,9,0,9,9,1,no
14,1,2,2,4,0,2,1,14,0,9,7,1,no
13,1,2,2,1,0,2,1,13,0,8,6.5,1,no
10,1,1,1,1,0,2,1,10,0,5,5,1,no
0,0,0,0,1,0,1,1,0,0,0,0,1,no
0,0,0,0,1,0,1,1,0,0,0,0,1,no
0,0,0,0,0,0,1,1,0,0,0,0,1,no
3,1,0,0,0,0,1,1,3,0,3,3,0,no
2,1,0,0,1,0,1,1,2,0,2,2,0,no
3,0,0,0,0,0,1,1,3,0,3,3,0,no
3,0,0,0,0,0,1,1,3,0,3,3,0,no
3,0,0,0,2,0,1,1,3,0,3,3,0,no
3,0,0,0,1,0,1,1,3,0,3,3,0,no
3,0,0,0,1,0,1,1,3,0,3,3,0,no
12,0,2,1,2,1,1,1,12,0,12,12,0,no
3,0,0,0,1,0,1,1,3,0,3,3,0,no
3,0,0,0,1,0,1,1,3,0,3,3,0,no
3,0,0,0,1,0,1,1,3,0,3,3,0,no
15,0,3,1,2,1,1,1,15,0,15,15,0,no
3,0,0,0,0,0,1,1,3,0,3,3,0,no
3,1,0,0,1,0,1,1,3,0,3,3,0,no
3,0,0,0,0,0,1,1,3,0,3,3,0,no
4,1,0,0,2,1,1,1,4,0,4,4,0,no
8,1,1,1,1,1,1,1,8,0,8,8,0,no
8,2,1,1,1,1,1,1,8,0,8,8,0,no
3,1,0,0,1,0,1,1,3,0,3,3,0,no
3,2,0,0,1,0,1,1,3,0,3,3,0,no
3,1,0,0,1,0,1,1,3,0,3,3,0,no
3,2,0,0,1,0,1,1,3,0,3,3,0,no
3,1,0,0,1,0,1,1,3,0,3,3,0,no
3,2,0,0,1,0,1,1,3,0,3,3,0,no
3,1,0,0,1,0,1,1,3,0,3,3,0,no
3,2,0,0,1,0,1,1,3,0,3,3,0,no
3,0,0,0,0,0,1,1,3,0,3,3,0,no
3,0,0,0,2,0,1,1,3,0,3,3,0,no
7,1,1,1,1,0,1,1,7,0,7,7,0,no
3,0,0,0,0,0,1,1,3,0,3,3,0,no
4,1,0,0,0,0,1,1,4,0,4,4,0,no
7,0,1,1,2,1,1,1,7,0,7,7,0,no
7,0,1,1,2,1,1,1,7,0,7,7,0,no
16,0,2,1,6,3,1,1,16,0,16,16,0,no
10,0,1,1,2,0,1,1,10,0,10,10,0,no
10,0,1,1,2,0,1,1,10,0,10,10,0,no
3,0,0,0,1,0,1,1,3,0,3,3,0,no
3,0,0,0,0,0,1,1,3,0,3,3,0,no
3,0,0,0,2,0,1,1,3,0,3,3,0,no
3,0,0,0,2,0,1,1,3,0,3,3,0,no
3,0,0,0,1,0,1,1,3,0,3,3,0,no
7,0,1,1,1,0,1,1,7,0,7,7,0,no
5,0,0,0,1,0,1,1,5,0,5,5,0,no
7,0,1,1,6,0,1,1,7,0,7,7,0,no
7,0,1,1,1,0,1,1,7,0,7,7,0,no
3,0,0,0,1,0,1,1,3,0,3,3,0,no
3,0,0,0,1,0,1,1,3,0,3,3,0,no
9,0,2,1,2,0,1,1,9,0,9,9,0,no
5,0,1,1,0,0,1,1,5,0,5,5,0,no
31,2,6,3,3,3,1,1,31,0,31,31,0,no
8,1,1,1,2,0,1,1,8,0,8,8,0,no
9,1,2,1,3,0,1,1,9,0,9,9,0,no
14,1,2,2,4,0,1,1,14,0,14,14,0,no
13,1,2,2,1,0,1,1,13,0,13,13,0,no
10,1,1,1,1,0,1,1,10,0,10,10,0,no
0,0,0,0,1,0,1,1,0,0,0,0,0,no
0,0,0,0,1,0,1,1,0,0,0,0,0,no
0,0,0,0,0,0,1,1,0,0,0,0,0,no
3,1,0,0,0,0,1,1,3,0,3,3,1,no
2,1,0,0,1,0,1,1,2,0,2,2,1,no
3,0,0,0,0,0,1,1,3,0,3,3,1,no
3,0,0,0,0,0,1,1,3,0,3,3,1,no
3,0,0,0,2,0,1,1,3,0,3,3,1,no
3,0,0,0,0,0,1,1,3,0,3,3,1,no
3,0,0,0,0,0,1,1,3,0,3,3,1,no
15,0,3,1,3,1,2,1,16,1,15,8.5,1,no
3,0,0,0,1,0,2,1,4,1,3,2.5,1,no
3,0,0,0,1,0,2,1,4,1,3,2.5,1,no
4,0,0,0,0,0,2,1,4,0,2,2,1,no
3,0,0,0,1,0,1,1,3,0,3,3,1,no
15,0,3,1,2,1,2,1,15,0,8,7.5,1,no
3,0,0,0,0,0,1,1,3,0,3,3,1,no
3,1,0,0,1,0,1,1,3,0,3,3,1,no
3,0,0,0,0,0,1,1,3,0,3,3,1,no
4,1,0,0,2,1,1,1,4,0,4,4,1,no
8,1,1,1,1,1,1,1,8,0,8,8,1,no
8,2,1,1,1,1,1,1,8,0,8,8,1,no
3,1,0,0,1,0,1,1,3,0,3,3,1,no
3,2,0,0,1,0,1,1,3,0,3,3,1,no
3,1,0,0,1,0,1,1,3,0,3,3,1,no
3,2,0,0,1,0,1,1,3,0,3,3,1,no
3,1,0,0,1,0,1,1,3,0,3,3,1,no
3,2,0,0,1,0,1,1,3,0,3,3,1,no
3,1,0,0,1,0,1,1,3,0,3,3,1,no
3,2,0,0,1,0,1,1,3,0,3,3,1,no
3,0,0,0,0,0,1,1,3,0,3,3,1,no
3,0,0,0,2,0,1,1,3,0,3,3,1,no
10,1,2,1,2,0,2,1,11,1,10,6,1,no
3,0,0,0,0,0,2,1,3,0,2,1.5,1,no
4,1,0,0,0,0,1,1,4,0,4,4,1,no
7,0,1,1,2,1,2,1,7,0,6,3.5,1,no
7,0,1,1,2,1,2,1,7,0,6,3.5,1,no
16,0,2,1,7,3,2,1,16,0,8,8,1,no
8,0,0,0,2,0,2,1,8,0,7,4,1,no
6,0,0,0,1,0,2,1,6,0,5,3,1,no
6,0,0,0,1,0,2,1,6,0,5,3,1,no
3,0,0,0,1,0,2,1,4,1,3,2.5,1,no
3,0,0,0,0,0,2,1,5,2,5,3.5,1,no
3,0,0,0,2,0,1,1,3,0,3,3,1,no
3,0,0,0,2,0,1,1,3,0,3,3,1,no
3,0,0,0,1,0,1,1,3,0,3,3,1,no
3,0,0,0,0,0,2,1,4,1,3,2.5,1,no
3,0,0,0,0,0,2,1,4,1,3,2.5,1,no
3,0,0,0,1,0,2,1,4,1,3,2.5,1,no
3,0,0,0,1,0,2,1,4,1,3,2.5,1,no
3,0,0,0,1,0,1,1,3,0,3,3,1,no
9,0,2,1,2,0,2,1,9,0,6,4.5,1,no
4,0,1,1,1,0,1,1,4,0,4,4,1,no
33,2,6,3,1,2,2,1,33,0,29,16.5,1,no
8,1,1,1,2,0,1,1,8,0,8,8,1,no
12,1,3,1,3,0,1,1,12,0,12,12,1,no
9,1,1,1,0,0,2,1,9,0,8,4.5,1,no
6,1,0,0,0,0,2,1,6,0,5,3,1,no
0,0,0,0,0,0,1,1,0,0,0,0,1,no
0,0,0,0,0,0,1,1,0,0,0,0,1,no
0,0,0,0,0,0,1,1,0,0,0,0,1,no
0,0,0,0,0,0,1,1,0,0,0,0,1,no
3,1,0,0,0,0,1,1,3,0,3,3,0,no
2,1,0,0,1,0,1,1,2,0,2,2,0,no
3,0,0,0,0,0,1,1,3,0,3,3,0,no
3,0,0,0,0,0,1,1,3,0,3,3,0,no
3,0,0,0,2,0,1,1,3,0,3,3,0,no
3,0,0,0,1,0,1,1,3,0,3,3,0,no
3,0,0,0,1,0,1,1,3,0,3,3,0,no
18,0,4,1,4,1,3,2,18,0,12,6,0,no
3,0,0,0,1,0,1,1,3,0,3,3,0,no
3,0,0,0,1,0,1,1,3,0,3,3,0,no
3,0,0,0,1,0,1,1,3,0,3,3,0,no
3,0,0,0,1,0,1,1,3,0,3,3,0,no
3,0,0,0,1,0,1,1,3,0,3,3,0,no
3,0,0,0,1,0,1,1,3,0,3,3,0,no
3,0,0,0,1,0,1,1,3,0,3,3,0,no
5,0,0,0,3,0,3,2,5,0,3,1.666667,0,no
3,0,0,0,1,0,1,1,3,0,3,3,0,no
13,0,3,2,2,1,1,1,13,0,13,13,0,no
3,0,0,0,0,0,1,1,3,0,3,3,0,no
3,1,0,0,1,0,1,1,3,0,3,3,0,no
3,0,0,0,0,0,1,1,3,0,3,3,0,no
4,1,0,0,2,1,1,1,4,0,4,4,0,no
8,1,1,1,1,1,1,1,8,0,8,8,0,no
8,2,1,1,1,1,1,1,8,0,8,8,0,no
3,1,0,0,1,0,1,1,3,0,3,3,0,no
3,2,0,0,1,0,1,1,3,0,3,3,0,no
3,1,0,0,1,0,1,1,3,0,3,3,0,no
3,2,0,0,1,0,1,1,3,0,3,3,0,no
3,1,0,0,1,0,1,1,3,0,3,3,0,no
3,2,0,0,1,0,1,1,3,0,3,3,0,no
3,1,0,0,1,0,1,1,3,0,3,3,0,no
3,2,0,0,1,0,1,1,3,0,3,3,0,no
3,0,0,0,0,0,1,1,3,0,3,3,0,no
3,0,0,0,2,0,1,1,3,0,3,3,0,no
13,1,3,1,3,0,3,2,13,0,7,4.333333,0,no
3,0,0,0,0,0,1,1,3,0,3,3,0,no
4,1,0,0,0,0,1,1,4,0,4,4,0,no
7,0,1,1,2,1,1,1,7,0,7,7,0,no
7,0,1,1,2,1,1,1,7,0,7,7,0,no
32,0,6,1,8,3,3,2,32,0,16,10.666667,0,no
22,0,3,1,6,0,3,2,22,0,10,7.333333,0,no
10,0,1,1,2,0,1,1,10,0,10,10,0,no
10,0,1,1,2,0,1,1,10,0,10,10,0,no
10,0,1,1,2,0,1,1,10,0,10,10,0,no
3,0,0,0,1,0,1,1,3,0,3,3,0,no
3,0,0,0,0,0,1,1,3,0,3,3,0,no
3,0,0,0,2,0,1,1,3,0,3,3,0,no
3,0,0,0,2,0,1,1,3,0,3,3,0,no
3,0,0,0,1,0,1,1,3,0,3,3,0,no
7,0,1,1,1,0,1,1,7,0,7,7,0,no
5,0,0,0,1,0,1,1,5,0,5,5,0,no
7,0,1,1,6,0,1,1,7,0,7,7,0,no
7,0,1,1,1,0,1,1,7,0,7,7,0,no
7,0,1,1,1,0,1,1,7,0,7,7,0,no
5,0,0,0,1,0,1,1,5,0,5,5,0,no
7,0,1,1,6,0,1,1,7,0,7,7,0,no
7,0,1,1,1,0,1,1,7,0,7,7,0,no
7,0,1,1,1,0,1,1,7,0,7,7,0,no
5,0,0,0,1,0,1,1,5,0,5,5,0,no
7,0,1,1,6,0,1,1,7,0,7,7,0,no
7,0,1,1,1,0,1,1,7,0,7,7,0,no
3,0,0,0,1,0,1,1,3,0,3,3,0,no
3,0,0,0,1,0,1,1,3,0,3,3,0,no
3,0,0,0,1,0,1,1,3,0,3,3,0,no
3,0,0,0,1,0,1,1,3,0,3,3,0,no
8,0,2,2,1,0,1,1,8,0,8,8,0,no
7,0,1,1,0,0,3,2,7,0,5,2.333333,0,no
51,2,10,3,7,5,3,2,51,0,31,17,0,no
8,1,1,1,2,0,1,1,8,0,8,8,0,no
15,1,4,1,3,0,3,2,15,0,9,5,0,no
14,1,2,2,4,0,1,1,14,0,14,14,0,no
14,1,2,2,4,0,1,1,14,0,14,14,0,no
14,1,2,2,4,0,1,1,14,0,14,14,0,no
13,1,2,2,1,0,1,1,13,0,13,13,0,no
10,1,1,1,1,0,1,1,10,0,10,10,0,no
13,1,2,2,1,0,1,1,13,0,13,13,0,no
10,1,1,1,1,0,1,1,10,0,10,10,0,no
13,1,2,2,1,0,1,1,13,0,13,13,0,no
10,1,1,1,1,0,1,1,10,0,10,10,0,no
0,0,0,0,1,0,1,1,0,0,0,0,0,no
0,0,0,0,1,0,1,1,0,0,0,0,0,no
0,0,0,0,1,0,1,1,0,0,0,0,0,no
0,0,0,0,1,0,1,1,0,0,0,0,0,no
0,0,0,0,1,0,1,1,0,0,0,0,0,no
0,0,0,0,1,0,1,1,0,0,0,0,0,no
0,0,0,0,0,0,1,1,0,0,0,0,0,no
0,0,0,0,0,0,1,1,0,0,0,0,0,no
0,0,0,0,0,0,1,1,0,0,0,0,0,no
3,1,0,0,0,0,1,1,3,0,3,3,1,no
2,1,0,0,1,0,1,1,2,0,2,2,1,no
3,0,0,0,0,0,1,1,3,0,3,3,1,no
3,0,0,0,0,0,1,1,3,0,3,3,1,no
3,0,0,0,2,0,1,1,3,0,3,3,1,no
12,0,2,1,2,1,2,1,13,1,12,7,1,no
3,0,0,0,0,0,1,1,3,0,3,3,1,no
3,0,0,0,1,0,2,1,4,1,3,2.5,1,no
3,0,0,0,0,0,2,1,3,0,2,1.5,1,no
3,0,0,0,1,0,1,1,3,0,3,3,1,no
11,0,2,1,2,1,2,1,11,0,6,5.5,1,no
3,0,0,0,0,0,1,1,3,0,3,3,1,no
3,1,0,0,1,0,1,1,3,0,3,3,1,no
3,0,0,0,0,0,1,1,3,0,3,3,1,no
4,1,0,0,2,1,1,1,4,0,4,4,1,no
8,1,1,1,1,1,1,1,8,0,8,8,1,no
8,2,1,1,1,1,1,1,8,0,8,8,1,no
3,1,0,0,1,0,1,1,3,0,3,3,1,no
3,2,0,0,1,0,1,1,3,0,3,3,1,no
3,1,0,0,1,0,1,1,3,0,3,3,1,no
3,2,0,0,1,0,1,1,3,0,3,3,1,no
3,1,0,0,1,0,1,1,3,0,3,3,1,no
3,2,0,0,1,0,1,1,3,0,3,3,1,no
3,1,0,0,1,0,1,1,3,0,3,3,1,no
3,2,0,0,1,0,1,1,3,0,3,3,1,no
3,0,0,0,0,0,1,1,3,0,3,3,1,no
3,0,0,0,2,0,1,1,3,0,3,3,1,no
7,1,1,1,1,0,2,1,8,1,7,4.5,1,no
3,0,0,0,0,0,2,1,3,0,2,1.5,1,no
4,1,0,0,0,0,1,1,4,0,4,4,1,no
7,0,1,1,2,1,2,1,7,0,6,3.5,1,no
7,0,1,1,2,1,2,1,7,0,6,3.5,1,no
12,0,1,1,6,3,2,1,12,0,8,6,1,no
6,0,0,0,1,0,2,1,7,1,7,4,1,no
6,0,0,0,1,0,2,1,6,0,5,3,1,no
3,0,0,0,1,0,2,1,4,1,3,2.5,1,no
3,0,0,0,0,0,2,1,5,2,5,3.5,1,no
3,0,0,0,2,0,1,1,3,0,3,3,1,no
3,0,0,0,2,0,1,1,3,0,3,3,1,no
3,0,0,0,1,0,1,1,3,0,3,3,1,no
3,0,0,0,0,0,2,1,4,1,3,2.5,1,no
3,0,0,0,1,0,2,1,4,1,3,2.5,1,no
3,0,0,0,1,0,1,1,3,0,3,3,1,no
6,0,1,1,2,0,2,1,6,0,3,3,1,no
4,0,1,1,1,0,1,1,4,0,4,4,1,no
27,2,5,3,1,2,2,1,27,0,24,13.5,1,no
8,1,1,1,2,0,1,1,8,0,8,8,1,no
9,1,2,1,3,0,1,1,9,0,9,9,1,no
9,1,1,1,0,0,2,1,9,0,8,4.5,1,no
0,0,0,0,0,0,1,1,0,0,0,0,1,no
0,0,0,0,0,0,1,1,0,0,0,0,1,no
4,2,0,0,1,0,1,1,4,0,4,4,1,no
3,0,0,0,1,0,2,1,4,1,3,2.5,1,no
3,0,0,0,0,0,1,1,3,0,3,3,1,no
3,0,0,0,0,0,1,1,3,0,3,3,1,no
3,0,0,0,0,0,1,1,3,0,3,3,1,no
3,0,0,0,0,0,1,1,3,0,3,3,1,no
6,1,1,1,1,0,1,1,6,0,6,6,1,no
48,1,22,1,0,0,5,1,48,0,30,9.6,1,no
3,1,0,0,0,0,1,1,3,0,3,3,1,no
3,1,0,0,0,0,1,1,3,0,3,3,1,no
2,1,0,0,1,0,1,1,2,0,2,2,1,no
3,0,0,0,0,0,1,1,3,0,3,3,1,no
3,0,0,0,0,0,1,1,3,0,3,3,1,no
3,0,0,0,2,0,1,1,3,0,3,3,1,no
12,0,2,1,2,1,2,1,13,1,12,7,1,no
3,0,0,0,0,0,1,1,3,0,3,3,1,no
3,0,0,0,1,0,2,1,4,1,3,2.5,1,no
3,0,0,0,0,0,2,1,3,0,2,1.5,1,no
3,0,0,0,1,0,1,1,3,0,3,3,1,no
11,0,2,1,2,1,2,1,11,0,6,5.5,1,no
3,0,0,0,0,0,1,1,3,0,3,3,1,no
3,1,0,0,1,0,1,1,3,0,3,3,1,no
3,0,0,0,0,0,1,1,3,0,3,3,1,no
4,1,0,0,2,1,1,1,4,0,4,4,1,no
8,1,1,1,1,1,1,1,8,0,8,8,1,no
8,2,1,1,1,1,1,1,8,0,8,8,1,no
3,1,0,0,1,0,1,1,3,0,3,3,1,no
3,2,0,0,1,0,1,1,3,0,3,3,1,no
3,1,0,0,1,0,1,1,3,0,3,3,1,no
3,2,0,0,1,0,1,1,3,0,3,3,1,no
3,1,0,0,1,0,1,1,3,0,3,3,1,no
3,2,0,0,1,0,1,1,3,0,3,3,1,no
3,1,0,0,1,0,1,1,3,0,3,3,1,no
3,2,0,0,1,0,1,1,3,0,3,3,1,no
3,0,0,0,0,0,1,1,3,0,3,3,1,no
3,0,0,0,2,0,1,1,3,0,3,3,1,no
7,1,1,1,1,0,2,1,8,1,7,4.5,1,no
3,0,0,0,0,0,2,1,3,0,2,1.5,1,no
4,1,0,0,0,0,1,1,4,0,4,4,1,no
7,0,1,1,2,1,2,1,7,0,6,3.5,1,no
7,0,1,1,2,1,2,1,7,0,6,3.5,1,no
12,0,1,1,6,3,2,1,12,0,8,6,1,no
6,0,0,0,1,0,2,1,7,1,7,4,1,no
6,0,0,0,1,0,2,1,6,0,5,3,1,no
3,0,0,0,1,0,2,1,4,1,3,2.5,1,no
3,0,0,0,0,0,2,1,5,2,5,3.5,1,no
3,0,0,0,2,0,1,1,3,0,3,3,1,no
3,0,0,0,2,0,1,1,3,0,3,3,1,no
3,0,0,0,1,0,1,1,3,0,3,3,1,no
3,0,0,0,0,0,2,1,4,1,3,2.5,1,no
3,0,0,0,1,0,2,1,4,1,3,2.5,1,no
3,0,0,0,1,0,1,1,3,0,3,3,1,no
6,0,1,1,2,0,2,1,6,0,3,3,1,no
4,0,1,1,1,0,1,1,4,0,4,4,1,no
27,2,5,3,1,2,2,1,27,0,24,13.5,1,no
8,1,1,1,2,0,1,1,8,0,8,8,1,no
9,1,2,1,3,0,1,1,9,0,9,9,1,no
9,1,1,1,0,0,2,1,9,0,8,4.5,1,no
0,0,0,0,0,0,1,1,0,0,0,0,1,no
0,0,0,0,0,0,1,1,0,0,0,0,1,no
3,1,0,0,0,0,1,1,3,0,3,3,1,no
2,1,0,0,1,0,1,1,2,0,2,2,1,no
3,0,0,0,1,0,1,1,3,0,3,3,1,no
3,0,0,0,0,0,1,1,3,0,3,3,1,no
3,0,0,0,0,0,1,1,3,0,3,3,1,no
3,0,0,0,2,0,1,1,3,0,3,3,1,no
3,0,0,0,0,0,1,1,3,0,3,3,0,no
3,0,0,0,0,0,1,1,3,0,3,3,0,no
3,0,0,0,1,0,1,1,3,0,3,3,0,no
3,0,0,0,1,0,1,1,3,0,3,3,0,no
27,0,7,1,7,1,5,1,28,1,18,5.8,1,no
3,0,0,0,0,0,1,1,3,0,3,3,1,no
3,0,0,0,0,0,1,1,3,0,3,3,1,no
3,0,0,0,1,0,2,1,4,1,3,2.5,1,no
3,0,0,0,1,0,1,1,3,0,3,3,0,no
3,0,0,0,1,0,2,1,4,1,3,2.5,1,no
3,0,0,0,1,0,1,1,3,0,3,3,0,no
3,0,0,0,1,0,2,1,4,1,3,2.5,1,no
3,0,0,0,1,0,2,1,4,1,3,2.5,1,no
8,0,0,0,2,0,4,1,8,0,3,2,1,no
3,0,0,0,1,0,1,1,3,0,3,3,1,no
11,0,2,1,2,1,2,1,11,0,6,5.5,1,no
3,0,0,0,0,0,1,1,3,0,3,3,1,no
3,1,0,0,1,0,1,1,3,0,3,3,1,no
3,0,0,0,0,0,1,1,3,0,3,3,1,no
4,1,0,0,2,1,1,1,4,0,4,4,1,no
8,1,1,1,1,1,1,1,8,0,8,8,1,no
8,2,1,1,1,1,1,1,8,0,8,8,1,no
3,1,0,0,1,0,1,1,3,0,3,3,1,no
3,2,0,0,1,0,1,1,3,0,3,3,1,no
3,1,0,0,1,0,1,1,3,0,3,3,1,no
3,2,0,0,1,0,1,1,3,0,3,3,1,no
3,1,0,0,1,0,1,1,3,0,3,3,1,no
3,2,0,0,1,0,1,1,3,0,3,3,1,no
3,1,0,0,1,0,1,1,3,0,3,3,1,no
3,2,0,0,1,0,1,1,3,0,3,3,1,no
3,0,0,0,0,0,1,1,3,0,3,3,1,no
3,0,0,0,2,0,1,1,3,0,3,3,1,no
22,1,6,1,6,0,5,1,23,1,13,4.8,1,no
3,0,0,0,0,0,2,1,3,0,2,1.5,1,no
4,1,0,0,0,0,1,1,4,0,4,4,1,no
7,0,1,1,2,1,2,1,7,0,6,3.5,1,no
7,0,1,1,2,1,2,1,7,0,6,3.5,1,no
36,0,7,1,11,3,4,1,36,0,16,9,1,no
20,0,1,1,8,0,4,1,20,0,7,5,1,no
6,0,0,0,2,0,2,1,6,0,5,3,1,no
6,0,0,0,1,0,1,1,6,0,6,6,0,no
6,0,0,0,1,0,2,1,6,0,5,3,1,no
10,0,1,1,2,0,1,1,10,0,10,10,0,no
6,0,0,0,1,0,2,1,6,0,5,3,1,no
6,0,0,0,1,0,2,1,6,0,5,3,1,no
3,0,0,0,1,0,2,1,4,1,3,2.5,1,no
3,0,0,0,0,0,2,1,5,2,5,3.5,1,no
3,0,0,0,1,0,2,1,4,1,3,2.5,1,no
3,0,0,0,2,0,1,1,3,0,3,3,1,no
3,0,0,0,2,0,1,1,3,0,3,3,1,no
3,0,0,0,1,0,1,1,3,0,3,3,1,no
3,0,0,0,0,0,1,1,3,0,3,3,0,no
3,0,0,0,0,0,2,1,4,1,3,2.5,1,no
7,0,1,1,1,0,1,1,7,0,7,7,0,no
5,0,0,0,1,0,1,1,5,0,5,5,0,no
7,0,1,1,6,0,1,1,7,0,7,7,0,no
7,0,1,1,1,0,1,1,7,0,7,7,0,no
3,0,0,0,0,0,2,1,4,1,3,2.5,1,no
3,0,0,0,0,0,2,1,4,1,3,2.5,1,no
3,0,0,0,1,0,2,1,4,1,3,2.5,1,no
3,0,0,0,1,0,1,1,3,0,3,3,0,no
3,0,0,0,1,0,2,1,4,1,3,2.5,1,no
3,0,0,0,1,0,1,1,3,0,3,3,0,no
3,0,0,0,1,0,2,1,4,1,3,2.5,1,no
3,0,0,0,1,0,2,1,4,1,3,2.5,1,no
3,0,0,0,1,0,1,1,3,0,3,3,1,no
6,0,1,1,2,0,2,1,6,0,3,3,1,no
5,0,1,1,0,0,2,1,5,0,4,2.5,1,no
67,2,12,3,5,5,5,1,67,0,40,13.4,1,no
8,1,1,1,2,0,1,1,8,0,8,8,1,no
24,1,7,1,3,0,4,1,24,0,15,6,1,no
14,1,2,2,4,0,1,1,14,0,14,14,0,no
9,1,1,1,1,0,2,1,9,0,8,4.5,1,no
6,1,0,0,0,0,1,1,6,0,6,6,0,no
6,1,0,0,0,0,2,1,6,0,5,3,1,no
13,1,2,2,1,0,1,1,13,0,13,13,0,no
10,1,1,1,1,0,1,1,10,0,10,10,0,no
9,1,1,1,0,0,2,1,9,0,8,4.5,1,no
6,1,0,0,0,0,2,1,6,0,5,3,1,no
4,2,0,0,1,0,1,1,4,0,4,4,1,no
3,0,0,0,1,0,1,1,3,0,3,3,1,no
3,0,0,0,0,0,1,1,3,0,3,3,1,no
3,0,0,0,0,0,1,1,3,0,3,3,1,no
3,0,0,0,0,0,1,1,3,0,3,3,1,no
3,0,0,0,0,0,1,1,3,0,3,3,1,no
6,1,1,1,1,0,1,1,6,0,6,6,1,no
12,1,4,1,0,0,1,1,12,0,12,12,1,no
3,1,0,0,0,0,1,1,3,0,3,3,1,no
0,0,0,0,1,0,1,1,0,0,0,0,1,no
0,0,0,0,0,0,1,1,0,0,0,0,0,no
0,0,0,0,0,0,1,1,0,0,0,0,1,no
0,0,0,0,1,0,1,1,0,0,0,0,0,no
0,0,0,0,1,0,1,1,0,0,0,0,0,no
0,0,0,0,0,0,1,1,0,0,0,0,1,no
0,0,0,0,0,0,1,1,0,0,0,0,1,no
0,0,0,0,0,0,1,1,0,0,0,0,1,no
0,0,0,0,0,0,1,1,0,0,0,0,0,no
0,0,0,0,0,0,1,1,0,0,0,0,1,no
0,0,0,0,0,0,1,1,0,0,0,0,0,no
0,0,0,0,0,0,1,1,0,0,0,0,1,no
0,0,0,0,0,0,1,1,0,0,0,0,1,no
3,1,0,0,0,0,1,1,3,0,3,3,0,no
2,1,0,0,1,0,1,1,2,0,2,2,0,no
3,0,0,0,0,0,1,1,3,0,3,3,0,no
3,0,0,0,0,0,1,1,3,0,3,3,0,no
3,0,0,0,2,0,1,1,3,0,3,3,0,no
3,0,0,0,1,0,1,1,3,0,3,3,0,no
3,0,0,0,1,0,1,1,3,0,3,3,0,no
12,0,2,1,2,1,1,1,12,0,12,12,0,no
3,0,0,0,1,0,1,1,3,0,3,3,0,no
3,0,0,0,1,0,1,1,3,0,3,3,0,no
3,0,0,0,1,0,1,1,3,0,3,3,0,no
7,0,1,1,2,1,1,1,7,0,7,7,0,no
3,0,0,0,0,0,1,1,3,0,3,3,0,no
3,1,0,0,1,0,1,1,3,0,3,3,0,no
3,0,0,0,0,0,1,1,3,0,3,3,0,no
4,1,0,0,2,1,1,1,4,0,4,4,0,no
8,1,1,1,1,1,1,1,8,0,8,8,0,no
8,2,1,1,1,1,1,1,8,0,8,8,0,no
3,1,0,0,1,0,1,1,3,0,3,3,0,no
3,2,0,0,1,0,1,1,3,0,3,3,0,no
3,1,0,0,1,0,1,1,3,0,3,3,0,no
3,2,0,0,1,0,1,1,3,0,3,3,0,no
3,1,0,0,1,0,1,1,3,0,3,3,0,no
3,2,0,0,1,0,1,1,3,0,3,3,0,no
3,1,0,0,1,0,1,1,3,0,3,3,0,no
3,2,0,0,1,0,1,1,3,0,3,3,0,no
3,0,0,0,0,0,1,1,3,0,3,3,0,no
3,0,0,0,2,0,1,1,3,0,3,3,0,no
7,1,1,1,1,0,1,1,7,0,7,7,0,no
3,0,0,0,0,0,1,1,3,0,3,3,0,no
4,1,0,0,0,0,1,1,4,0,4,4,0,no
7,0,1,1,2,1,1,1,7,0,7,7,0,no
7,0,1,1,2,1,1,1,7,0,7,7,0,no
16,0,2,1,6,3,1,1,16,0,16,16,0,no
10,0,1,1,2,0,1,1,10,0,10,10,0,no
10,0,1,1,2,0,1,1,10,0,10,10,0,no
3,0,0,0,1,0,1,1,3,0,3,3,0,no
3,0,0,0,0,0,1,1,3,0,3,3,0,no
3,0,0,0,2,0,1,1,3,0,3,3,0,no
3,0,0,0,2,0,1,1,3,0,3,3,0,no
3,0,0,0,1,0,1,1,3,0,3,3,0,no
7,0,1,1,1,0,1,1,7,0,7,7,0,no
5,0,0,0,1,0,1,1,5,0,5,5,0,no
7,0,1,1,6,0,1,1,7,0,7,7,0,no
7,0,1,1,1,0,1,1,7,0,7,7,0,no
3,0,0,0,1,0,1,1,3,0,3,3,0,no
3,0,0,0,1,0,1,1,3,0,3,3,0,no
3,0,0,0,1,0,1,1,3,0,3,3,0,no
5,0,1,1,0,0,1,1,5,0,5,5,0,no
31,2,6,3,3,3,1,1,31,0,31,31,0,no
8,1,1,1,2,0,1,1,8,0,8,8,0,no
9,1,2,1,3,0,1,1,9,0,9,9,0,no
14,1,2,2,4,0,1,1,14,0,14,14,0,no
13,1,2,2,1,0,1,1,13,0,13,13,0,no
10,1,1,1,1,0,1,1,10,0,10,10,0,no
0,0,0,0,1,0,1,1,0,0,0,0,0,no
0,0,0,0,1,0,1,1,0,0,0,0,0,no
0,0,0,0,0,0,1,1,0,0,0,0,0,no
3,1,0,0,0,0,1,1,3,0,3,3,0,no
2,1,0,0,1,0,1,1,2,0,2,2,0,no
3,0,0,0,0,0,1,1,3,0,3,3,0,no
3,0,0,0,0,0,1,1,3,0,3,3,0,no
3,0,0,0,2,0,1,1,3,0,3,3,0,no
3,0,0,0,1,0,1,1,3,0,3,3,0,no
3,0,0,0,1,0,1,1,3,0,3,3,0,no
15,0,3,1,3,1,1,1,15,0,15,15,0,no
3,0,0,0,1,0,1,1,3,0,3,3,0,no
3,0,0,0,1,0,1,1,3,0,3,3,0,no
3,0,0,0,1,0,1,1,3,0,3,3,0,no
3,0,0,0,1,0,1,1,3,0,3,3,0,no
4,0,0,0,2,0,1,1,4,0,4,4,0,no
3,0,0,0,1,0,1,1,3,0,3,3,0,no
13,0,3,2,2,1,1,1,13,0,13,13,0,no
3,0,0,0,0,0,1,1,3,0,3,3,0,no
3,1,0,0,1,0,1,1,3,0,3,3,0,no
3,0,0,0,0,0,1,1,3,0,3,3,0,no
4,1,0,0,2,1,1,1,4,0,4,4,0,no
8,1,1,1,1,1,1,1,8,0,8,8,0,no
8,2,1,1,1,1,1,1,8,0,8,8,0,no
3,1,0,0,1,0,1,1,3,0,3,3,0,no
3,2,0,0,1,0,1,1,3,0,3,3,0,no
3,1,0,0,1,0,1,1,3,0,3,3,0,no
3,2,0,0,1,0,1,1,3,0,3,3,0,no
3,1,0,0,1,0,1,1,3,0,3,3,0,no
3,2,0,0,1,0,1,1,3,0,3,3,0,no
3,1,0,0,1,0,1,1,3,0,3,3,0,no
3,2,0,0,1,0,1,1,3,0,3,3,0,no
3,0,0,0,0,0,1,1,3,0,3,3,0,no
3,0,0,0,2,0,1,1,3,0,3,3,0,no
10,1,2,1,2,0,1,1,10,0,10,10,0,no
3,0,0,0,0,0,1,1,3,0,3,3,0,no
4,1,0,0,0,0,1,1,4,0,4,4,0,no
7,0,1,1,2,1,1,1,7,0,7,7,0,no
7,0,1,1,2,1,1,1,7,0,7,7,0,no
24,0,4,1,7,3,1,1,24,0,24,24,0,no
16,0,2,1,4,0,1,1,16,0,16,16,0,no
10,0,1,1,2,0,1,1,10,0,10,10,0,no
10,0,1,1,2,0,1,1,10,0,10,10,0,no
3,0,0,0,1,0,1,1,3,0,3,3,0,no
3,0,0,0,0,0,1,1,3,0,3,3,0,no
3,0,0,0,2,0,1,1,3,0,3,3,0,no
3,0,0,0,2,0,1,1,3,0,3,3,0,no
3,0,0,0,1,0,1,1,3,0,3,3,0,no
7,0,1,1,1,0,1,1,7,0,7,7,0,no
5,0,0,0,1,0,1,1,5,0,5,5,0,no
7,0,1,1,6,0,1,1,7,0,7,7,0,no
7,0,1,1,1,0,1,1,7,0,7,7,0,no
7,0,1,1,1,0,1,1,7,0,7,7,0,no
5,0,0,0,1,0,1,1,5,0,5,5,0,no
7,0,1,1,6,0,1,1,7,0,7,7,0,no
7,0,1,1,1,0,1,1,7,0,7,7,0,no
3,0,0,0,1,0,1,1,3,0,3,3,0,no
3,0,0,0,1,0,1,1,3,0,3,3,0,no
3,0,0,0,1,0,1,1,3,0,3,3,0,no
8,0,2,2,1,0,1,1,8,0,8,8,0,no
6,0,1,1,0,0,1,1,6,0,6,6,0,no
41,2,8,3,5,4,1,1,41,0,41,41,0,no
8,1,1,1,2,0,1,1,8,0,8,8,0,no
12,1,3,1,3,0,1,1,12,0,12,12,0,no
14,1,2,2,4,0,1,1,14,0,14,14,0,no
14,1,2,2,4,0,1,1,14,0,14,14,0,no
13,1,2,2,1,0,1,1,13,0,13,13,0,no
10,1,1,1,1,0,1,1,10,0,10,10,0,no
13,1,2,2,1,0,1,1,13,0,13,13,0,no
10,1,1,1,1,0,1,1,10,0,10,10,0,no
0,0,0,0,1,0,1,1,0,0,0,0,0,no
0,0,0,0,1,0,1,1,0,0,0,0,0,no
0,0,0,0,1,0,1,1,0,0,0,0,0,no
0,0,0,0,1,0,1,1,0,0,0,0,0,no
0,0,0,0,0,0,1,1,0,0,0,0,0,no
0,0,0,0,0,0,1,1,0,0,0,0,0,no
4,2,0,0,1,0,1,1,4,0,4,4,0,no
3,0,0,0,1,0,1,1,3,0,3,3,0,no
3,0,0,0,0,0,1,1,3,0,3,3,0,no
3,0,0,0,0,0,1,1,3,0,3,3,0,no
3,0,0,0,0,0,1,1,3,0,3,3,0,no
3,0,0,0,0,0,1,1,3,0,3,3,0,no
6,1,1,1,1,0,1,1,6,0,6,6,0,no
10,1,3,1,0,0,1,1,10,0,10,10,0,no
3,1,0,0,0,0,1,1,3,0,3,3,0,no
3,1,0,0,0,0,1,1,3,0,3,3,0,no
2,1,0,0,1,0,1,1,2,0,2,2,0,no
3,0,0,0,0,0,1,1,3,0,3,3,0,no
3,0,0,0,0,0,1,1,3,0,3,3,0,no
3,0,0,0,2,0,1,1,3,0,3,3,0,no
3,0,0,0,1,0,1,1,3,0,3,3,0,no
12,0,2,1,2,1,1,1,12,0,12,12,0,no
3,0,0,0,1,0,1,1,3,0,3,3,0,no
3,0,0,0,1,0,1,1,3,0,3,3,0,no
3,0,0,0,1,0,1,1,3,0,3,3,0,no
7,0,1,1,2,1,1,1,7,0,7,7,0,no
3,0,0,0,0,0,1,1,3,0,3,3,0,no
3,1,0,0,1,0,1,1,3,0,3,3,0,no
3,0,0,0,0,0,1,1,3,0,3,3,0,no
4,1,0,0,2,1,1,1,4,0,4,4,0,no
8,1,1,1,1,1,1,1,8,0,8,8,0,no
8,2,1,1,1,1,1,1,8,0,8,8,0,no
3,1,0,0,1,0,1,1,3,0,3,3,0,no
3,2,0,0,1,0,1,1,3,0,3,3,0,no
3,1,0,0,1,0,1,1,3,0,3,3,0,no
3,2,0,0,1,0,1,1,3,0,3,3,0,no
3,1,0,0,1,0,1,1,3,0,3,3,0,no
3,2,0,0,1,0,1,1,3,0,3,3,0,no
3,1,0,0,1,0,1,1,3,0,3,3,0,no
3,2,0,0,1,0,1,1,3,0,3,3,0,no
3,0,0,0,0,0,1,1,3,0,3,3,0,no
3,0,0,0,2,0,1,1,3,0,3,3,0,no
7,1,1,1,1,0,1,1,7,0,7,7,0,no
3,0,0,0,0,0,1,1,3,0,3,3,0,no
4,1,0,0,0,0,1,1,4,0,4,4,0,no
7,0,1,1,2,1,1,1,7,0,7,7,0,no
7,0,1,1,2,1,1,1,7,0,7,7,0,no
12,0,1,1,6,3,1,1,12,0,12,12,0,no
6,0,0,0,2,0,1,1,6,0,6,6,0,no
6,0,0,0,2,0,1,1,6,0,6,6,0,no
3,0,0,0,1,0,1,1,3,0,3,3,0,no
3,0,0,0,0,0,1,1,3,0,3,3,0,no
3,0,0,0,2,0,1,1,3,0,3,3,0,no
3,0,0,0,2,0,1,1,3,0,3,3,0,no
3,0,0,0,1,0,1,1,3,0,3,3,0,no
3,0,0,0,1,0,1,1,3,0,3,3,0,no
3,0,0,0,1,0,1,1,3,0,3,3,0,no
3,0,0,0,1,0,1,1,3,0,3,3,0,no
3,0,0,0,1,0,1,1,3,0,3,3,0,no
4,0,1,1,1,0,1,1,4,0,4,4,0,no
33,2,6,3,3,4,1,1,33,0,33,33,0,no
8,1,1,1,2,0,1,1,8,0,8,8,0,no
9,1,2,1,3,0,1,1,9,0,9,9,0,no
9,1,1,1,1,0,1,1,9,0,9,9,0,no
0,0,0,0,1,0,1,1,0,0,0,0,0,no
0,0,0,0,0,0,1,1,0,0,0,0,0,no
3,1,0,0,0,0,1,1,3,0,3,3,1,no
2,1,0,0,1,0,1,1,2,0,2,2,0,no
3,0,0,0,1,0,1,1,3,0,3,3,0,no
3,0,0,0,0,0,1,1,3,0,3,3,0,no
3,0,0,0,0,0,1,1,3,0,3,3,0,no
3,0,0,0,2,0,1,1,3,0,3,3,0,no
3,0,0,0,0,0,1,1,3,0,3,3,0,no
3,0,0,0,0,0,1,1,3,0,3,3,0,no
3,0,0,0,0,0,1,1,3,0,3,3,0,no
13,0,2,2,1,3,1,1,13,0,13,13,0,no
10,0,1,1,1,2,1,1,10,0,10,10,0,no
3,0,0,0,0,0,1,1,3,0,3,3,1,no
3,0,0,0,1,0,1,1,3,0,3,3,0,no
3,0,0,0,1,0,1,1,3,0,3,3,0,no
30,0,8,1,8,1,7,2,32,2,15,4.857143,1,no
3,0,0,0,1,0,3,1,5,2,3,2.333333,1,no
3,0,0,0,1,0,2,1,4,1,3,2.5,0,no
3,0,0,0,1,0,1,1,3,0,3,3,0,no
3,0,0,0,1,0,3,1,5,2,3,2.333333,1,no
3,0,0,0,1,0,2,1,4,1,3,2.5,0,no
3,0,0,0,1,0,1,1,3,0,3,3,1,no
3,0,0,0,1,0,2,1,4,1,3,2.5,0,no
9,0,0,0,2,0,7,2,10,1,3,1.571429,1,no
3,0,0,0,1,0,1,1,3,0,3,3,0,no
7,0,1,1,2,1,2,1,7,0,4,3.5,1,no
3,0,0,0,0,0,1,1,3,0,3,3,0,no
3,1,0,0,1,0,1,1,3,0,3,3,0,no
3,0,0,0,0,0,1,1,3,0,3,3,0,no
4,1,0,0,2,1,1,1,4,0,4,4,1,no
8,1,1,1,1,1,1,1,8,0,8,8,0,no
8,2,1,1,1,1,1,1,8,0,8,8,0,no
3,1,0,0,1,0,1,1,3,0,3,3,0,no
3,2,0,0,1,0,1,1,3,0,3,3,0,no
3,1,0,0,1,0,1,1,3,0,3,3,0,no
3,2,0,0,1,0,1,1,3,0,3,3,0,no
3,1,0,0,1,0,1,1,3,0,3,3,0,no
3,2,0,0,1,0,1,1,3,0,3,3,0,no
3,1,0,0,1,0,1,1,3,0,3,3,0,no
3,2,0,0,1,0,1,1,3,0,3,3,0,no
3,0,0,0,0,0,1,1,3,0,3,3,0,no
3,0,0,0,2,0,1,1,3,0,3,3,1,no
25,1,7,1,7,0,7,2,27,2,10,4.142857,1,no
3,0,0,0,0,0,2,1,3,0,2,1.5,1,no
4,1,0,0,0,0,1,1,4,0,4,4,1,no
7,0,1,1,2,1,2,1,7,0,6,3.5,1,no
7,0,1,1,2,1,2,1,7,0,6,3.5,1,no
40,0,8,1,12,3,7,2,41,1,8,6,1,no
22,0,1,1,9,0,7,2,23,1,7,3.428571,1,no
6,0,0,0,2,0,3,1,7,1,5,2.666667,1,no
6,0,0,0,1,0,2,1,7,1,6,4,0,no
6,0,0,0,1,0,1,1,6,0,6,6,0,no
6,0,0,0,1,0,3,1,7,1,5,2.666667,1,no
6,0,0,0,1,0,2,1,7,1,6,4,0,no
6,0,0,0,1,0,1,1,6,0,6,6,1,no
10,0,1,1,2,0,2,1,11,1,10,6,0,no
3,0,0,0,1,0,2,1,4,1,3,2.5,1,no
3,0,0,0,0,0,2,1,5,2,5,3.5,1,no
3,0,0,0,1,0,2,1,4,1,3,2.5,1,no
3,0,0,0,2,0,1,1,3,0,3,3,0,no
3,0,0,0,2,0,1,1,3,0,3,3,1,no
3,0,0,0,1,0,1,1,3,0,3,3,0,no
3,0,0,0,0,0,1,1,3,0,3,3,0,no
3,0,0,0,0,0,1,1,3,0,3,3,0,no
3,0,0,0,0,0,2,1,4,1,3,2.5,1,no
10,0,1,1,1,2,1,1,10,0,10,10,0,no
3,0,0,0,0,0,1,1,3,0,3,3,1,no
7,0,1,1,1,0,1,1,7,0,7,7,0,no
5,0,0,0,1,0,2,1,6,1,5,3.5,0,no
7,0,1,1,6,0,1,1,7,0,7,7,0,no
7,0,1,1,1,0,1,1,7,0,7,7,0,no
3,0,0,0,1,0,3,1,5,2,3,2.333333,1,no
3,0,0,0,1,0,2,1,4,1,3,2.5,0,no
3,0,0,0,1,0,1,1,3,0,3,3,0,no
3,0,0,0,1,0,3,1,5,2,3,2.333333,1,no
3,0,0,0,1,0,2,1,4,1,3,2.5,0,no
3,0,0,0,1,0,1,1,3,0,3,3,1,no
3,0,0,0,1,0,2,1,4,1,3,2.5,0,no
3,0,0,0,1,0,1,1,3,0,3,3,1,no
3,0,0,0,1,0,2,1,4,1,3,2.5,1,no
5,0,1,1,0,0,2,1,5,0,4,2.5,1,no
73,2,13,3,5,5,7,2,74,1,35,10.714286,1,no
8,1,1,1,2,0,1,1,8,0,8,8,0,no
27,1,8,1,3,0,6,2,28,1,12,4.833333,1,no
14,1,2,2,4,0,2,1,15,1,14,8,0,no
9,1,1,1,1,0,3,1,10,1,8,3.666667,1,no
6,1,0,0,0,0,2,1,7,1,6,4,0,no
6,1,0,0,0,0,1,1,6,0,6,6,0,no
6,1,0,0,0,0,3,1,7,1,5,2.666667,1,no
9,1,1,1,0,0,2,1,10,1,9,5.5,0,no
5,1,0,0,0,0,2,1,6,1,5,3.5,0,no
6,1,0,0,0,0,1,1,6,0,6,6,1,no
13,1,2,2,1,0,2,1,14,1,13,7.5,0,no
10,1,1,1,1,0,2,1,11,1,10,6,0,no
0,0,0,0,1,0,1,1,0,0,0,0,1,no
0,0,0,0,0,0,1,1,0,0,0,0,0,no
0,0,0,0,0,0,1,1,0,0,0,0,0,no
0,0,0,0,0,0,1,1,0,0,0,0,1,no
0,0,0,0,0,0,1,1,0,0,0,0,0,no
0,0,0,0,0,0,1,1,0,0,0,0,1,no
0,0,0,0,1,0,1,1,0,0,0,0,0,no
0,0,0,0,1,0,1,1,0,0,0,0,0,no
0,0,0,0,0,0,1,1,0,0,0,0,1,no
0,0,0,0,0,0,1,1,0,0,0,0,0,no
0,0,0,0,0,0,1,1,0,0,0,0,0,no
0,0,0,0,0,0,1,1,0,0,0,0,1,no
0,0,0,0,0,0,1,1,0,0,0,0,0,no
0,0,0,0,0,0,1,1,0,0,0,0,1,no
0,0,0,0,0,0,1,1,0,0,0,0,0,no
3,1,0,0,0,0,1,1,3,0,3,3,0,no
2,1,0,0,1,0,1,1,2,0,2,2,0,no
3,0,0,0,0,0,1,1,3,0,3,3,0,no
3,0,0,0,0,0,1,1,3,0,3,3,0,no
3,0,0,0,2,0,1,1,3,0,3,3,0,no
3,0,0,0,0,0,1,1,3,0,3,3,0,no
13,0,2,2,1,3,1,1,13,0,13,13,0,no
10,0,1,1,1,2,1,1,10,0,10,10,0,no
3,0,0,0,0,0,1,1,3,0,3,3,1,no
3,0,0,0,1,0,1,1,3,0,3,3,0,no
3,0,0,0,1,0,1,1,3,0,3,3,0,no
21,0,5,1,5,1,4,2,22,1,15,5.75,1,no
3,0,0,0,1,0,1,1,3,0,3,3,0,no
3,0,0,0,1,0,1,1,3,0,3,3,0,no
3,0,0,0,1,0,1,1,3,0,3,3,1,no
3,0,0,0,1,0,1,1,3,0,3,3,0,no
6,0,0,0,1,0,4,2,7,1,4,2,1,no
3,0,0,0,1,0,1,1,3,0,3,3,0,no
7,0,1,1,2,1,1,1,7,0,7,7,0,no
3,0,0,0,0,0,1,1,3,0,3,3,0,no
3,1,0,0,1,0,1,1,3,0,3,3,0,no
3,0,0,0,0,0,1,1,3,0,3,3,0,no
4,1,0,0,2,1,1,1,4,0,4,4,0,no
8,1,1,1,1,1,1,1,8,0,8,8,0,no
8,2,1,1,1,1,1,1,8,0,8,8,0,no
3,1,0,0,1,0,1,1,3,0,3,3,0,no
3,2,0,0,1,0,1,1,3,0,3,3,0,no
3,1,0,0,1,0,1,1,3,0,3,3,0,no
3,2,0,0,1,0,1,1,3,0,3,3,0,no
3,1,0,0,1,0,1,1,3,0,3,3,0,no
3,2,0,0,1,0,1,1,3,0,3,3,0,no
3,1,0,0,1,0,1,1,3,0,3,3,0,no
3,2,0,0,1,0,1,1,3,0,3,3,0,no
3,0,0,0,0,0,1,1,3,0,3,3,0,no
3,0,0,0,2,0,1,1,3,0,3,3,0,no
16,1,4,1,4,0,4,2,17,1,10,4.5,1,no
3,0,0,0,0,0,1,1,3,0,3,3,0,no
4,1,0,0,0,0,1,1,4,0,4,4,0,no
7,0,1,1,2,1,1,1,7,0,7,7,0,no
7,0,1,1,2,1,1,1,7,0,7,7,0,no
28,0,5,1,9,3,4,2,29,1,20,7.5,1,no
16,0,1,1,5,0,4,2,17,1,12,4.5,1,no
6,0,0,0,1,0,1,1,6,0,6,6,0,no
6,0,0,0,1,0,1,1,6,0,6,6,0,no
6,0,0,0,1,0,1,1,6,0,6,6,1,no
10,0,1,1,2,0,1,1,10,0,10,10,0,no
3,0,0,0,1,0,1,1,3,0,3,3,0,no
3,0,0,0,0,0,1,1,3,0,3,3,0,no
3,0,0,0,2,0,1,1,3,0,3,3,0,no
3,0,0,0,2,0,1,1,3,0,3,3,0,no
3,0,0,0,1,0,1,1,3,0,3,3,0,no
3,0,0,0,0,0,1,1,3,0,3,3,0,no
10,0,1,1,1,2,1,1,10,0,10,10,0,no
3,0,0,0,0,0,1,1,3,0,3,3,1,no
7,0,1,1,1,0,1,1,7,0,7,7,0,no
5,0,0,0,1,0,1,1,5,0,5,5,0,no
7,0,1,1,6,0,1,1,7,0,7,7,0,no
7,0,1,1,1,0,1,1,7,0,7,7,0,no
3,0,0,0,1,0,1,1,3,0,3,3,0,no
3,0,0,0,1,0,1,1,3,0,3,3,0,no
3,0,0,0,1,0,1,1,3,0,3,3,1,no
3,0,0,0,1,0,1,1,3,0,3,3,0,no
3,0,0,0,1,0,1,1,3,0,3,3,0,no
3,0,0,0,1,0,1,1,3,0,3,3,0,no
5,0,1,1,0,0,1,1,5,0,5,5,0,no
49,2,9,3,3,3,4,2,50,1,37,12.75,1,no
8,1,1,1,2,0,1,1,8,0,8,8,0,no
18,1,5,1,3,0,4,2,19,1,12,5,1,no
14,1,2,2,4,0,1,1,14,0,14,14,0,no
6,1,0,0,0,0,1,1,6,0,6,6,0,no
9,1,1,1,0,0,1,1,9,0,9,9,0,no
5,1,0,0,0,0,1,1,5,0,5,5,0,no
6,1,0,0,0,0,1,1,6,0,6,6,1,no
13,1,2,2,1,0,1,1,13,0,13,13,0,no
10,1,1,1,1,0,1,1,10,0,10,10,0,no
0,0,0,0,0,0,1,1,0,0,0,0,0,no
0,0,0,0,0,0,1,1,0,0,0,0,0,no
0,0,0,0,0,0,1,1,0,0,0,0,1,no
0,0,0,0,1,0,1,1,0,0,0,0,0,no
0,0,0,0,1,0,1,1,0,0,0,0,0,no
0,0,0,0,0,0,1,1,0,0,0,0,0,no
0,0,0,0,0,0,1,1,0,0,0,0,0,no
0,0,0,0,0,0,1,1,0,0,0,0,1,no
0,0,0,0,0,0,1,1,0,0,0,0,0,no
3,1,0,0,0,0,1,1,3,0,3,3,1,no
2,1,0,0,1,0,1,1,2,0,2,2,1,no
3,0,0,0,0,0,1,1,3,0,3,3,1,no
3,0,0,0,0,0,1,1,3,0,3,3,1,no
3,0,0,0,2,0,1,1,3,0,3,3,1,no
3,0,0,0,0,0,1,1,3,0,3,3,0,no
3,0,0,0,1,0,1,1,3,0,3,3,1,no
3,0,0,0,1,0,1,1,3,0,3,3,1,no
15,0,3,1,3,1,3,1,16,1,12,5.666667,1,no
3,0,0,0,1,0,2,1,4,1,3,2.5,1,no
3,0,0,0,1,0,2,1,4,1,3,2.5,1,no
4,0,0,0,1,0,2,1,4,0,3,2,1,no
3,0,0,0,1,0,1,1,3,0,3,3,1,no
15,0,3,1,2,1,2,1,15,0,8,7.5,1,no
3,0,0,0,0,0,1,1,3,0,3,3,1,no
3,1,0,0,1,0,1,1,3,0,3,3,1,no
3,0,0,0,0,0,1,1,3,0,3,3,1,no
4,1,0,0,2,1,1,1,4,0,4,4,1,no
8,1,1,1,1,1,1,1,8,0,8,8,1,no
8,2,1,1,1,1,1,1,8,0,8,8,1,no
3,1,0,0,1,0,1,1,3,0,3,3,1,no
3,2,0,0,1,0,1,1,3,0,3,3,1,no
3,1,0,0,1,0,1,1,3,0,3,3,1,no
3,2,0,0,1,0,1,1,3,0,3,3,1,no
3,1,0,0,1,0,1,1,3,0,3,3,1,no
3,2,0,0,1,0,1,1,3,0,3,3,1,no
3,1,0,0,1,0,1,1,3,0,3,3,1,no
3,2,0,0,1,0,1,1,3,0,3,3,1,no
3,0,0,0,0,0,1,1,3,0,3,3,1,no
3,0,0,0,2,0,1,1,3,0,3,3,1,no
10,1,2,1,2,0,3,1,11,1,7,4,1,no
3,0,0,0,0,0,2,1,3,0,2,1.5,1,no
4,1,0,0,0,0,1,1,4,0,4,4,1,no
7,0,1,1,2,1,2,1,7,0,6,3.5,1,no
7,0,1,1,2,1,2,1,7,0,6,3.5,1,no
20,0,3,1,7,3,2,1,20,0,12,10,1,no
12,0,1,1,3,0,2,1,12,0,7,6,1,no
6,0,0,0,1,0,2,1,6,0,5,3,1,no
10,0,1,1,2,0,2,1,10,0,5,5,1,no
3,0,0,0,1,0,2,1,4,1,3,2.5,1,no
3,0,0,0,0,0,2,1,5,2,5,3.5,1,no
3,0,0,0,2,0,1,1,3,0,3,3,1,no
3,0,0,0,2,0,1,1,3,0,3,3,1,no
3,0,0,0,1,0,1,1,3,0,3,3,1,no
3,0,0,0,0,0,2,1,4,1,3,2.5,1,no
7,0,1,1,1,0,2,1,7,0,4,3.5,1,no
5,0,0,0,1,0,1,1,5,0,5,5,1,no
7,0,1,1,6,0,1,1,7,0,7,7,1,no
7,0,1,1,1,0,1,1,7,0,7,7,1,no
3,0,0,0,1,0,2,1,4,1,3,2.5,1,no
3,0,0,0,1,0,2,1,4,1,3,2.5,1,no
3,0,0,0,1,0,1,1,3,0,3,3,1,no
9,0,2,1,2,0,2,1,9,0,6,4.5,1,no
5,0,1,1,0,0,1,1,5,0,5,5,1,no
37,2,7,3,3,3,3,1,37,0,29,12.333333,1,no
8,1,1,1,2,0,1,1,8,0,8,8,1,no
12,1,3,1,3,0,2,1,12,0,9,6,1,no
14,1,2,2,4,0,2,1,14,0,9,7,1,no
6,1,0,0,0,0,2,1,6,0,5,3,1,no
13,1,2,2,1,0,2,1,13,0,8,6.5,1,no
10,1,1,1,1,0,2,1,10,0,5,5,1,no
0,0,0,0,0,0,1,1,0,0,0,0,1,no
0,0,0,0,1,0,1,1,0,0,0,0,1,no
0,0,0,0,1,0,1,1,0,0,0,0,1,no
0,0,0,0,0,0,1,1,0,0,0,0,1,no
0,0,0,0,0,0,1,1,0,0,0,0,1,no
3,1,0,0,0,0,1,1,3,0,3,3,1,no
2,1,0,0,1,0,1,1,2,0,2,2,1,no
3,0,0,0,0,0,1,1,3,0,3,3,1,no
3,0,0,0,0,0,1,1,3,0,3,3,1,no
3,0,0,0,2,0,1,1,3,0,3,3,1,no
12,0,2,1,2,1,2,1,13,1,12,7,1,no
3,0,0,0,0,0,1,1,3,0,3,3,1,no
3,0,0,0,1,0,2,1,4,1,3,2.5,1,no
3,0,0,0,0,0,2,1,3,0,2,1.5,1,no
3,0,0,0,1,0,1,1,3,0,3,3,1,no
11,0,2,1,2,1,2,1,11,0,6,5.5,1,no
3,0,0,0,0,0,1,1,3,0,3,3,1,no
3,1,0,0,1,0,1,1,3,0,3,3,1,no
3,0,0,0,0,0,1,1,3,0,3,3,1,no
4,1,0,0,2,1,1,1,4,0,4,4,1,no
8,1,1,1,1,1,1,1,8,0,8,8,1,no
8,2,1,1,1,1,1,1,8,0,8,8,1,no
3,1,0,0,1,0,1,1,3,0,3,3,1,no
3,2,0,0,1,0,1,1,3,0,3,3,1,no
3,1,0,0,1,0,1,1,3,0,3,3,1,no
3,2,0,0,1,0,1,1,3,0,3,3,1,no
3,1,0,0,1,0,1,1,3,0,3,3,1,no
3,2,0,0,1,0,1,1,3,0,3,3,1,no
3,1,0,0,1,0,1,1,3,0,3,3,1,no
3,2,0,0,1,0,1,1,3,0,3,3,1,no
3,0,0,0,0,0,1,1,3,0,3,3,1,no
3,0,0,0,2,0,1,1,3,0,3,3,1,no
7,1,1,1,1,0,2,1,8,1,7,4.5,1,no
3,0,0,0,0,0,2,1,3,0,2,1.5,1,no
4,1,0,0,0,0,1,1,4,0,4,4,1,no
7,0,1,1,2,1,2,1,7,0,6,3.5,1,no
7,0,1,1,2,1,2,1,7,0,6,3.5,1,no
12,0,1,1,6,3,2,1,12,0,8,6,1,no
6,0,0,0,1,0,2,1,7,1,7,4,1,no
6,0,0,0,1,0,2,1,6,0,5,3,1,no
3,0,0,0,1,0,2,1,4,1,3,2.5,1,no
3,0,0,0,0,0,2,1,5,2,5,3.5,1,no
3,0,0,0,2,0,1,1,3,0,3,3,1,no
3,0,0,0,2,0,1,1,3,0,3,3,1,no
3,0,0,0,1,0,1,1,3,0,3,3,1,no
3,0,0,0,0,0,2,1,4,1,3,2.5,1,no
3,0,0,0,1,0,2,1,4,1,3,2.5,1,no
3,0,0,0,1,0,1,1,3,0,3,3,1,no
6,0,1,1,2,0,2,1,6,0,3,3,1,no
4,0,1,1,1,0,1,1,4,0,4,4,1,no
27,2,5,3,1,2,2,1,27,0,24,13.5,1,no
8,1,1,1,2,0,1,1,8,0,8,8,1,no
9,1,2,1,3,0,1,1,9,0,9,9,1,no
9,1,1,1,0,0,2,1,9,0,8,4.5,1,no
0,0,0,0,0,0,1,1,0,0,0,0,1,no
0,0,0,0,0,0,1,1,0,0,0,0,1,no
15,1,2,2,1,6,1,1,15,0,15,15,0,no
7,1,1,1,0,2,1,1,7,0,7,7,0,no
14,1,2,2,1,6,1,1,14,0,14,14,0,no
19,2,5,2,0,3,1,1,19,0,19,19,0,no
14,2,4,2,1,3,1,1,14,0,14,14,0,no
7,1,1,1,0,2,1,1,7,0,7,7,0,no
3,2,0,0,0,0,1,1,3,0,3,3,0,no
6,2,0,0,0,1,1,1,6,0,6,6,0,no
13,1,1,1,0,3,1,1,13,0,13,13,0,no
16,3,4,2,1,5,1,1,16,0,16,16,0,no
3,1,0,0,0,0,1,1,3,0,3,3,0,no
3,2,0,0,0,0,1,1,3,0,3,3,0,no
6,3,0,0,1,3,1,1,6,0,6,6,0,no
3,1,0,0,0,0,1,1,3,0,3,3,0,no
3,2,0,0,0,0,1,1,3,0,3,3,0,no
7,1,1,1,0,0,1,1,7,0,7,7,0,no
3,1,0,0,0,0,1,1,3,0,3,3,0,no
9,1,1,1,0,1,1,1,9,0,9,9,0,no
10,1,2,1,0,1,1,1,10,0,10,10,0,no
14,1,2,1,0,1,1,1,14,0,14,14,0,no
5,1,0,0,0,1,1,1,5,0,5,5,0,no
15,2,1,1,1,0,4,2,20,5,12,6.25,1,no
4,3,0,0,0,1,1,1,4,0,4,4,1,no
8,0,0,0,0,0,2,1,8,0,4,4,0,no
8,0,0,0,0,0,1,1,8,0,8,8,1,no
24,0,4,3,0,10,4,2,25,1,19,6.5,1,no
3,0,0,0,0,0,1,1,3,0,3,3,0,no
3,0,0,0,0,0,1,1,3,0,3,3,0,no
3,0,0,0,0,0,2,1,4,1,3,2.5,1,no
3,0,0,0,0,0,1,1,3,0,3,3,0,no
3,0,0,0,0,0,1,1,3,0,3,3,1,no
22,2,2,1,0,1,4,1,23,1,13,6,0,no
69,1,12,3,2,16,3,1,69,0,38,23,1,no
22,1,2,1,0,1,2,1,22,0,12,11,0,no
22,1,2,1,0,3,4,1,30,8,20,9.5,0,no
3,0,0,0,0,0,2,1,4,1,3,2.5,0,no
3,0,0,0,0,0,1,1,3,0,3,3,0,no
22,1,2,1,0,1,2,1,22,0,17,11,0,no
3,2,0,0,0,0,1,1,3,0,3,3,0,no
3,2,0,0,0,0,1,1,3,0,3,3,0,no
3,2,0,0,0,0,1,1,3,0,3,3,0,no
3,2,0,0,0,0,1,1,3,0,3,3,0,no
7,2,1,1,0,2,2,1,7,0,4,3.5,0,no
7,2,1,1,0,0,1,1,7,0,7,7,0,no
7,2,1,1,0,0,1,1,7,0,7,7,0,no
7,2,1,1,0,0,1,1,7,0,7,7,0,no
3,2,0,0,0,0,1,1,3,0,3,3,0,no
7,2,1,1,0,0,1,1,7,0,7,7,0,no
4,2,0,0,0,0,1,1,4,0,4,4,0,no
5,0,0,0,0,1,1,1,5,0,5,5,0,no
5,1,1,1,0,0,2,1,5,0,3,2.5,0,no
8,0,2,2,0,0,1,1,8,0,8,8,0,no
6,1,0,0,1,0,1,1,6,0,6,6,0,no
3,0,0,0,0,0,1,1,3,0,3,3,0,no
6,1,0,0,1,0,1,1,6,0,6,6,0,no
3,1,0,0,0,0,1,1,3,0,3,3,0,no
14,1,2,2,0,4,1,1,14,0,14,14,0,no
3,0,0,0,0,0,1,1,3,0,3,3,0,no
27,0,1,1,0,0,2,1,27,0,26,13.5,1,no
6,3,0,0,0,0,1,1,6,0,6,6,0,no
3,1,0,0,1,0,1,1,3,0,3,3,0,no
3,0,0,0,0,0,1,1,3,0,3,3,0,no
3,0,0,0,0,0,1,1,3,0,3,3,0,no
3,0,0,0,0,0,1,1,3,0,3,3,0,no
7,0,1,1,0,1,1,1,7,0,7,7,0,no
47,1,7,2,1,5,4,1,47,0,44,11.75,1,no
3,2,0,0,0,0,1,1,3,0,3,3,0,no
23,0,0,0,0,2,2,1,23,0,22,11.5,1,no
15,0,3,2,1,1,2,1,16,1,15,8.5,1,no
8,1,1,1,1,0,1,1,8,0,8,8,0,no
3,0,0,0,0,0,1,1,3,0,3,3,0,no
5,0,0,0,0,1,1,1,5,0,5,5,0,no
4,1,0,0,0,1,1,1,4,0,4,4,0,no
5,1,1,1,0,0,1,1,5,0,5,5,0,no
39,1,7,3,0,7,3,2,42,3,41,15,1,no
38,0,6,3,2,5,3,1,103,65,87,56,1,no
9,0,1,1,0,1,1,1,9,0,9,9,0,no
14,1,2,1,0,2,1,1,14,0,14,14,0,no
4,5,0,0,0,0,1,1,4,0,4,4,0,no
3,3,0,0,0,0,1,1,3,0,3,3,0,no
24,1,3,1,0,7,3,1,25,1,23,8.666667,0,no
15,1,2,1,0,4,1,1,15,0,15,15,0,no
13,1,1,0,0,4,3,1,15,2,13,5.666667,0,no
15,1,3,1,0,1,2,1,23,8,23,15.5,1,no
11,1,2,1,1,1,2,1,12,1,11,6.5,0,no
10,1,2,1,0,0,1,1,10,0,10,10,0,no
7,1,0,0,0,0,2,1,8,1,7,4.5,1,no
18,1,3,1,0,2,1,1,18,0,18,18,1,no
15,1,3,2,0,3,1,1,15,0,15,15,0,no
9,1,2,2,0,1,1,1,9,0,9,9,0,no
0,1,0,0,0,0,1,1,0,0,0,0,0,no
2,0,0,0,1,0,1,1,2,0,2,2,0,no
3,0,0,0,0,0,1,1,3,0,3,3,0,no
3,1,0,0,0,0,1,1,3,0,3,3,0,no
3,0,0,0,0,0,1,1,3,0,3,3,0,no
3,0,0,0,0,0,1,1,3,0,3,3,0,no
3,1,0,0,0,0,1,1,3,0,3,3,0,no
9,1,1,1,0,1,1,1,9,0,9,9,0,no
24,1,4,3,0,3,1,1,24,0,24,24,0,no
6,1,1,1,0,0,1,1,6,0,6,6,0,no
23,1,4,2,0,5,1,1,23,0,23,23,0,no
61,1,7,3,3,13,4,2,68,7,66,18.75,1,no
7,5,1,1,0,0,2,1,10,3,10,6.5,1,no
14,1,2,1,0,2,1,1,14,0,14,14,0,no
23,1,4,2,1,1,1,1,23,0,23,23,0,no
30,1,5,3,0,11,2,2,30,0,29,15,0,no
10,1,3,2,1,0,1,1,10,0,10,10,0,no
24,1,5,3,0,1,1,1,24,0,24,24,0,no
7,0,1,1,0,2,2,1,8,1,7,4.5,0,no
21,0,4,3,0,4,2,1,21,0,16,10.5,0,no
44,1,8,4,0,5,2,1,44,0,43,22,0,no
16,1,2,1,0,2,1,1,16,0,16,16,0,no
3,1,0,0,0,0,1,1,3,0,3,3,0,no
17,3,3,2,1,3,2,2,18,1,17,9.5,0,no
9,4,2,2,1,1,2,2,9,0,8,4.5,0,no
16,3,4,3,1,3,2,1,16,0,13,8,0,no
3,3,0,0,0,0,1,1,3,0,3,3,0,no
6,4,0,0,0,0,1,1,6,0,6,6,0,no
33,0,8,3,1,4,2,1,34,1,33,17.5,1,no
3,0,1,0,0,0,1,1,3,0,3,3,0,no
43,1,6,4,1,7,1,1,43,0,43,43,0,no
17,0,4,2,0,4,3,1,19,2,18,7,1,no
8,0,1,1,0,1,2,1,21,13,21,17,1,no
9,0,1,1,2,2,2,2,10,1,9,5.5,0,no
59,1,12,5,0,8,1,1,59,0,59,59,1,no
18,0,4,2,0,1,1,1,18,0,18,18,0,no
11,1,1,1,0,1,1,1,11,0,11,11,0,no
11,1,1,1,0,1,1,1,11,0,11,11,0,no
42,1,6,4,1,7,1,1,42,0,42,42,0,no
4,1,0,0,0,0,1,1,4,0,4,4,0,no
0,1,0,0,0,0,1,1,0,0,0,0,0,no
10,0,0,0,0,2,1,1,10,0,10,10,0,no
10,2,1,1,2,1,2,2,11,1,10,6,1,no
0,0,0,0,0,0,1,1,0,0,0,0,0,no
5,2,0,0,0,0,1,1,5,0,5,5,0,no
15,2,3,1,1,1,2,2,16,1,15,8.5,1,no
6,1,0,0,0,1,2,2,7,1,6,4,0,no
26,1,1,1,0,11,3,3,28,2,26,10,1,no
4,1,0,0,0,1,1,1,4,0,4,4,0,no
5,0,0,0,0,0,1,1,5,0,5,5,0,no
3,5,0,0,0,0,1,1,3,0,3,3,0,no
11,1,1,1,0,5,2,2,12,1,11,6.5,0,no
18,1,1,1,0,8,2,2,19,1,18,10,1,no
4,1,0,0,0,1,1,1,4,0,4,4,0,no
3,0,0,0,0,0,2,2,4,1,3,2.5,0,no
3,4,0,0,0,0,1,1,3,0,3,3,0,no
10,1,0,0,0,1,1,1,10,0,10,10,0,no
7,0,0,0,0,1,1,1,7,0,7,7,0,no
3,1,0,0,0,0,1,1,3,0,3,3,0,no
17,2,1,1,0,5,1,1,17,0,17,17,0,no
7,1,1,1,0,1,2,2,11,4,11,7.5,1,no
7,0,1,1,0,0,1,1,7,0,7,7,0,no
3,0,0,0,0,0,1,1,3,0,3,3,0,no
3,0,0,0,0,0,1,1,3,0,3,3,0,no
7,0,1,1,0,0,1,1,7,0,7,7,0,no
3,0,0,0,0,0,1,1,3,0,3,3,1,no
3,0,0,0,0,0,1,1,3,0,3,3,0,no
3,0,0,0,0,0,1,1,3,0,3,3,0,no
10,0,2,2,1,2,1,1,10,0,10,10,0,no
3,0,0,0,0,0,1,1,3,0,3,3,0,no
3,0,0,0,0,0,1,1,3,0,3,3,1,no
3,0,0,0,0,0,1,1,3,0,3,3,0,no
3,0,0,0,0,0,1,1,3,0,3,3,0,no
3,0,0,0,0,0,1,1,3,0,3,3,0,no
3,0,0,0,0,0,1,1,3,0,3,3,0,no
3,0,0,0,0,0,1,1,3,0,3,3,0,no
3,0,0,0,0,0,1,1,3,0,3,3,0,no
3,0,0,0,0,0,1,1,3,0,3,3,0,no
3,0,0,0,0,0,1,1,3,0,3,3,0,no
3,0,0,0,0,0,1,1,3,0,3,3,0,no
3,0,0,0,0,0,1,1,3,0,3,3,0,no
6,0,1,1,0,0,1,1,6,0,6,6,0,no
3,0,0,0,0,0,1,1,3,0,3,3,0,no
3,0,0,0,0,0,1,1,3,0,3,3,1,no
3,0,0,0,0,0,1,1,3,0,3,3,0,no
3,0,0,0,0,0,1,1,3,0,3,3,0,no
3,0,0,0,0,0,2,2,4,1,3,2.5,1,no
3,0,0,0,0,0,1,1,3,0,3,3,0,no
6,0,1,1,0,0,1,1,6,0,6,6,0,no
3,0,0,0,0,0,1,1,3,0,3,3,0,no
3,0,0,0,0,0,1,1,3,0,3,3,0,no
3,0,0,0,0,0,1,1,3,0,3,3,1,no
3,0,0,0,0,0,1,1,3,0,3,3,0,no
3,0,0,0,0,0,1,1,3,0,3,3,0,no
6,0,1,1,0,0,1,1,6,0,6,6,0,no
3,0,0,0,0,0,1,1,3,0,3,3,0,no
7,0,1,1,1,1,3,2,8,1,4,3,1,no
3,1,0,0,0,0,1,1,3,0,3,3,0,no
3,1,0,0,0,0,1,1,3,0,3,3,0,no
3,0,0,0,0,0,1,1,3,0,3,3,0,no
3,1,0,0,0,0,1,1,3,0,3,3,0,no
3,0,0,0,0,0,1,1,3,0,3,3,0,no
3,2,0,0,0,0,1,1,3,0,3,3,0,no
3,1,0,0,0,0,1,1,3,0,3,3,0,no
3,0,0,0,0,0,1,1,3,0,3,3,0,no
3,0,0,0,0,0,1,1,3,0,3,3,0,no
3,0,0,0,0,0,1,1,3,0,3,3,0,no
3,0,0,0,0,0,1,1,3,0,3,3,0,no
4,1,0,0,0,0,1,1,4,0,4,4,0,no
5,0,0,0,0,0,1,1,5,0,5,5,0,no
3,0,0,0,0,0,1,1,3,0,3,3,0,no
7,0,1,1,0,0,1,1,7,0,7,7,0,no
8,0,1,1,0,1,1,1,8,0,8,8,0,no
4,1,0,0,0,0,1,1,4,0,4,4,0,no
18,0,6,3,2,2,2,2,18,0,15,9,0,yes
4,2,0,0,1,0,3,3,6,2,4,2.666667,1,no
3,1,0,0,0,0,1,1,3,0,3,3,0,no
3,1,0,0,0,0,1,1,3,0,3,3,0,no
7,1,2,1,2,1,1,1,7,0,7,7,0,no
14,2,2,1,1,2,1,1,14,0,14,14,0,no
16,3,0,0,0,0,1,1,16,0,16,16,0,no
4,2,0,0,0,0,1,1,4,0,4,4,0,no
4,2,0,0,0,0,1,1,4,0,4,4,0,no
3,1,0,0,0,0,1,1,3,0,3,3,0,no
4,0,0,0,0,0,1,1,4,0,4,4,0,no
0,0,0,0,0,0,1,1,0,0,0,0,0,no
3,1,0,0,0,0,1,1,3,0,3,3,0,no
3,1,0,0,0,0,1,1,3,0,3,3,0,no
3,1,0,0,0,0,1,1,3,0,3,3,0,no
3,0,0,0,0,0,1,1,3,0,3,3,0,no
8,1,1,1,0,1,1,1,8,0,8,8,0,no
3,0,0,0,0,0,1,1,3,0,3,3,0,no
3,0,0,0,0,0,1,1,3,0,3,3,1,no
12,1,2,1,0,1,1,1,12,0,12,12,0,no
5,2,0,0,0,1,1,1,5,0,5,5,0,no
3,0,0,0,0,0,1,1,3,0,3,3,1,no
0,0,0,0,1,0,1,1,0,0,0,0,0,no
0,0,0,0,1,0,1,1,0,0,0,0,0,no
0,0,0,0,1,0,1,1,0,0,0,0,0,no
0,0,0,0,1,0,1,1,0,0,0,0,0,no
0,2,0,0,1,0,1,1,0,0,0,0,0,no
0,3,0,0,1,0,1,1,0,0,0,0,0,no
0,0,0,0,1,0,1,1,0,0,0,0,1,no
0,8,0,0,1,0,1,1,0,0,0,0,1,no
0,0,0,0,1,0,1,1,0,0,0,0,1,no
0,5,0,0,1,0,1,1,0,0,0,0,0,no
17,3,2,1,0,1,1,1,17,0,17,17,0,no
4,2,0,0,0,1,1,1,4,0,4,4,0,no
3,1,0,0,0,0,2,1,13,10,13,11.5,0,no
8,2,0,0,0,0,1,1,8,0,8,8,0,no
3,2,0,0,0,0,1,1,3,0,3,3,0,no
3,1,0,0,0,0,1,1,3,0,3,3,0,no
7,1,1,1,0,1,1,1,7,0,7,7,0,no
7,3,1,1,0,1,1,1,7,0,7,7,0,no
3,3,0,0,0,0,2,2,4,1,3,2.5,0,no
3,1,0,0,0,0,1,1,3,0,3,3,0,no
17,4,4,1,0,2,2,2,17,0,14,8.5,1,no
5,0,1,1,0,1,2,2,6,1,6,3.5,1,no
3,1,0,0,0,0,3,3,7,4,6,3.666667,1,no
5,0,1,1,0,1,2,1,5,0,3,2.5,1,no
4,8,0,0,0,1,2,1,5,1,4,3,1,no
5,0,1,1,0,1,2,2,5,0,3,2.5,0,no
3,5,0,0,0,0,4,2,10,7,8,4.25,1,no
5,0,1,1,0,1,2,2,6,1,5,3.5,1,no
2,2,0,0,1,0,1,1,2,0,2,2,0,no
2,2,0,0,1,0,1,1,2,0,2,2,0,no
19,8,2,2,0,0,1,1,19,0,19,19,1,no
9,0,0,1,0,0,1,1,9,0,9,9,0,no
3,0,0,0,0,0,1,1,3,0,3,3,0,no
8,0,0,1,0,0,3,2,15,7,10,7.333333,0,no
17,0,2,1,1,0,2,1,17,0,15,8.5,1,no
3,0,0,0,0,0,1,1,3,0,3,3,0,no
3,0,0,0,0,0,1,1,3,0,3,3,0,no
3,0,0,0,0,0,1,1,3,0,3,3,0,no
3,0,0,0,0,0,1,1,3,0,3,3,0,no
8,0,0,1,0,0,2,2,8,0,5,4,0,no
22,1,4,1,1,0,2,1,23,1,22,12,0,no
15,2,2,1,0,1,5,2,18,3,14,4.2,0,yes
9,0,2,1,1,0,2,2,10,1,9,5.5,1,no
20,0,2,2,3,2,6,3,22,2,9,4,1,no
3,0,0,0,0,0,3,3,5,2,3,2.333333,1,no
6,2,1,1,0,0,2,2,7,1,6,4,0,no
3,2,0,0,0,0,2,2,3,0,2,1.5,0,no
15,0,2,1,0,1,4,2,16,1,12,4.25,1,no
3,1,0,0,0,0,1,1,3,0,3,3,0,no
30,1,3,2,0,1,3,1,30,0,12,10,0,no
10,0,0,0,0,1,2,2,10,0,8,5,1,no
3,0,0,0,0,0,1,1,3,0,3,3,0,no
3,0,0,0,0,0,1,1,3,0,3,3,0,no
2,0,0,0,0,0,1,1,2,0,2,2,0,no
2,0,0,0,0,0,1,1,2,0,2,2,0,no
3,0,0,0,0,0,1,1,3,0,3,3,0,no
0,0,0,0,1,0,1,1,0,0,0,0,0,no
5,3,0,0,0,0,1,1,5,0,5,5,0,no
22,0,2,1,0,3,1,1,22,0,22,22,0,no
4,1,0,0,0,0,1,1,4,0,4,4,0,no
13,1,2,1,0,0,1,1,13,0,13,13,0,no
5,1,1,1,0,0,1,1,5,0,5,5,0,no
6,0,0,0,1,0,1,1,6,0,6,6,0,no
6,1,1,1,0,0,2,1,7,1,7,4,0,no
11,0,2,2,0,2,1,1,11,0,11,11,0,no
20,0,4,3,0,1,1,1,20,0,20,20,0,no
3,0,0,0,0,0,1,1,3,0,3,3,0,no
3,0,0,0,0,0,1,1,3,0,3,3,0,no
5,0,0,0,0,0,1,1,5,0,5,5,0,no
4,2,2,0,1,1,1,1,4,0,4,4,0,no
2,0,0,0,0,0,1,1,2,0,2,2,0,no
3,0,0,0,0,0,1,1,3,0,3,3,0,no
3,0,0,0,0,0,1,1,3,0,3,3,0,no
6,5,0,0,0,0,1,1,6,0,6,6,1,no
7,0,1,1,0,1,4,3,12,5,8,4.25,1,no
3,0,0,0,0,0,1,1,3,0,3,3,0,no
4,2,0,0,0,0,1,1,4,0,4,4,0,no
18,2,1,1,0,0,2,2,18,0,16,9,0,no
0,2,0,0,0,0,1,1,0,0,0,0,0,no
4,2,0,0,0,0,2,2,4,0,3,2,0,no
8,2,1,1,0,0,2,2,8,0,7,4,0,no
0,1,0,0,1,0,1,1,0,0,0,0,0,no
7,5,0,0,0,0,1,1,7,0,7,7,0,no
34,2,1,1,0,4,1,1,34,0,34,34,0,no
4,2,0,0,0,0,1,1,4,0,4,4,0,no
15,2,0,0,0,0,1,1,15,0,15,15,0,no
4,2,0,0,0,0,1,1,4,0,4,4,0,no
5,2,0,0,0,0,1,1,5,0,5,5,0,no
4,3,0,0,0,0,1,1,4,0,4,4,0,no
9,2,1,1,0,1,2,2,9,0,8,4.5,0,no
3,2,0,0,0,0,2,2,3,0,2,1.5,0,no
3,2,0,0,1,0,2,2,3,0,2,1.5,0,no
0,2,0,0,2,0,1,1,0,0,0,0,0,no
3,1,0,0,0,0,1,1,3,0,3,3,0,no
3,0,0,0,0,0,1,1,3,0,3,3,0,no
3,0,0,0,0,0,2,1,4,1,3,2.5,0,no
3,0,0,0,0,0,1,1,3,0,3,3,0,no
0,0,0,0,1,0,1,1,0,0,0,0,0,no
5,3,0,0,0,0,2,2,5,0,4,2.5,0,no
8,2,1,1,0,2,1,1,8,0,8,8,0,no
22,2,1,1,0,3,4,3,24,2,18,6.5,1,no
4,2,0,0,0,0,2,2,4,0,3,2,0,no
4,2,0,0,0,0,1,1,4,0,4,4,0,no
8,6,0,0,0,0,1,1,8,0,8,8,0,no
90,2,8,2,4,20,10,3,113,23,42,13.6,1,no
5,2,0,0,1,0,3,2,5,0,3,1.666667,0,no
59,2,6,2,2,14,7,1,81,22,46,14.714286,1,no
2,2,0,0,0,0,1,1,2,0,2,2,1,no
7,2,0,0,1,2,1,1,7,0,7,7,1,no
5,0,0,0,0,0,3,2,6,1,4,2.333333,0,no
5,1,1,1,0,0,1,1,5,0,5,5,0,no
15,1,3,3,1,3,3,2,15,0,9,5,0,no
3,0,0,0,0,0,1,1,3,0,3,3,0,no
3,0,0,0,0,0,1,1,3,0,3,3,0,no
42,3,9,5,3,5,2,1,42,0,27,21,0,no
15,2,4,3,2,1,2,1,15,0,10,7.5,0,no
3,1,0,0,0,0,1,1,3,0,3,3,0,no
7,1,1,1,0,0,1,1,7,0,7,7,0,no
0,1,0,0,1,0,1,1,0,0,0,0,0,no
7,5,0,0,0,0,1,1,7,0,7,7,0,no
34,2,1,1,0,4,4,3,35,1,20,9,1,no
4,2,0,0,0,0,2,2,4,0,3,2,0,no
15,2,0,0,0,0,4,3,16,1,10,4.25,1,no
4,2,0,0,0,0,1,1,4,0,4,4,0,no
5,2,0,0,0,0,1,1,5,0,5,5,0,no
0,1,0,0,1,0,1,1,0,0,0,0,0,no
0,0,0,0,1,0,1,1,0,0,0,0,0,no
3,0,0,0,0,0,1,1,3,0,3,3,0,no
3,0,0,0,0,0,1,1,3,0,3,3,0,no
3,1,0,0,0,0,1,1,3,0,3,3,0,no
4,2,0,0,0,1,1,1,4,0,4,4,1,no
7,1,1,1,1,1,1,1,7,0,7,7,0,no
3,2,0,0,0,0,1,1,3,0,3,3,0,no
3,0,0,0,0,0,1,1,3,0,3,3,0,no
3,0,0,0,0,0,1,1,3,0,3,3,0,no
21,2,3,1,1,5,2,2,22,1,21,11.5,0,no
5,2,0,0,0,2,2,2,6,1,5,3.5,0,no
3,0,0,0,0,0,1,1,3,0,3,3,0,no
22,3,4,2,2,4,1,1,22,0,22,22,1,no
0,2,0,0,0,0,1,1,0,0,0,0,1,no
0,0,0,0,0,0,1,1,0,0,0,0,0,no
0,0,0,0,0,0,1,1,0,0,0,0,0,no
0,3,0,0,0,0,1,1,0,0,0,0,0,no
35,2,7,3,2,5,2,1,53,18,53,35.5,1,no
0,0,0,0,0,0,1,1,0,0,0,0,0,no
0,0,0,0,0,0,1,1,0,0,0,0,0,no
0,0,0,0,0,0,1,1,0,0,0,0,0,no
0,0,0,0,0,0,1,1,0,0,0,0,0,no
18,2,2,1,0,1,1,1,18,0,18,18,0,no
3,0,0,0,0,0,1,1,3,0,3,3,0,no
46,0,5,2,0,5,1,1,46,0,46,46,0,no
29,3,6,2,0,0,1,1,29,0,29,29,0,no
11,4,2,2,0,1,1,1,11,0,11,11,0,no
4,5,0,0,1,0,1,1,4,0,4,4,0,no
3,0,0,0,0,0,1,1,3,0,3,3,0,no
3,0,0,0,0,0,1,1,3,0,3,3,0,no
3,0,0,0,0,0,1,1,3,0,3,3,0,no
19,0,4,1,0,0,1,1,19,0,19,19,0,no
14,0,3,2,0,0,1,1,14,0,14,14,0,no
4,0,0,0,0,1,1,1,4,0,4,4,0,no
3,0,0,0,0,0,1,1,3,0,3,3,0,no
5,3,0,0,0,1,1,1,5,0,5,5,0,no
4,2,0,0,0,0,1,1,4,0,4,4,0,no
2,0,0,0,0,0,1,1,2,0,2,2,0,no
20,5,3,2,0,2,1,1,20,0,20,20,0,no
21,5,3,3,1,1,1,1,21,0,21,21,0,no
3,2,0,0,0,0,1,1,3,0,3,3,0,no
3,2,0,0,0,0,1,1,3,0,3,3,0,no
3,0,0,0,0,0,1,1,3,0,3,3,0,no
35,4,5,2,0,6,1,1,35,0,35,35,0,no
15,3,1,1,0,3,1,1,15,0,15,15,0,no
40,6,5,2,0,9,1,1,40,0,40,40,0,no
3,6,0,0,0,0,1,1,3,0,3,3,0,no
10,1,2,1,0,1,2,2,11,1,10,6,0,no
23,6,4,3,0,2,1,1,23,0,23,23,0,no
18,1,2,1,0,7,1,1,18,0,18,18,0,no
29,3,5,2,0,5,1,1,29,0,29,29,0,no
15,3,3,3,1,0,1,1,15,0,15,15,0,no
13,3,3,2,0,0,1,1,16,0,16,16,0,no
16,3,4,3,0,0,1,1,16,0,16,16,0,no
8,3,1,1,0,1,1,1,8,0,8,8,0,no
30,3,4,2,0,8,1,1,30,0,30,30,0,no
3,1,0,0,0,0,1,1,3,0,3,3,0,no
2,0,0,0,0,0,1,1,2,0,2,2,0,no
21,4,3,3,1,0,1,1,21,0,21,21,0,no
26,3,4,2,1,3,2,2,27,1,26,14,0,no
25,5,4,4,0,1,2,2,26,1,25,13.5,0,no
21,3,4,2,1,3,2,2,22,1,21,11.5,0,no
16,3,3,3,1,0,1,1,16,0,16,16,0,no
18,3,4,4,0,0,1,1,18,0,18,18,0,no
3,1,0,0,0,0,1,1,3,0,3,3,0,no
2,0,0,0,0,0,1,1,2,0,2,2,0,no
21,4,3,3,1,0,1,1,21,0,21,21,0,no
21,5,2,1,0,7,1,1,21,0,21,21,0,no
19,3,3,2,0,1,1,1,19,0,19,19,0,no
24,5,4,4,0,1,2,2,25,1,24,13,0,no
14,3,3,2,0,1,1,1,14,0,14,14,0,no
16,3,3,3,1,0,1,1,16,0,16,16,0,no
17,3,4,4,0,0,1,1,17,0,17,17,0,no
5,0,1,1,0,0,1,1,5,0,5,5,0,no
6,2,0,0,1,0,1,1,6,0,6,6,0,no
3,0,0,0,0,0,1,1,3,0,3,3,0,no
3,0,0,0,0,0,1,1,3,0,3,3,0,no
0,5,0,0,1,0,1,1,0,0,0,0,0,no
0,5,0,0,1,0,1,1,0,0,0,0,0,no
0,0,0,0,1,0,1,1,0,0,0,0,0,no
0,4,0,0,1,0,1,1,0,0,0,0,0,no
0,3,0,0,1,0,1,1,0,0,0,0,0,no
0,6,0,0,1,0,1,1,0,0,0,0,0,no
0,6,0,0,1,0,1,1,0,0,0,0,0,no
0,4,0,0,1,0,1,1,0,0,0,0,0,no
0,3,0,0,1,0,1,1,0,0,0,0,0,no
0,5,0,0,1,0,1,1,0,0,0,0,0,no
0,4,0,0,1,0,1,1,0,0,0,0,0,no
0,3,0,0,1,0,1,1,0,0,0,0,0,no
0,5,0,0,1,0,1,1,0,0,0,0,0,no
11,2,3,1,1,0,1,1,11,0,11,11,1,no
3,0,0,0,0,0,1,1,3,0,3,3,0,no
26,0,2,1,0,3,1,1,26,0,26,26,0,no
8,3,1,1,0,0,1,1,8,0,8,8,0,no
3,0,0,0,0,0,1,1,3,0,3,3,0,no
3,0,0,0,0,0,1,1,3,0,3,3,0,no
3,0,0,0,0,0,1,1,3,0,3,3,0,no
2,0,0,0,0,0,1,1,2,0,2,2,0,no
3,0,0,0,0,0,1,1,3,0,3,3,0,no
4,0,0,0,0,1,1,1,4,0,4,4,0,no
3,0,0,0,0,0,1,1,3,0,3,3,0,no
4,2,0,0,0,0,1,1,4,0,4,4,0,no
2,0,0,0,0,0,1,1,2,0,2,2,0,no
19,5,3,3,0,1,2,1,20,1,19,10.5,0,no
34,5,7,4,0,2,2,2,35,1,34,18,0,no
3,0,0,0,0,0,1,1,3,0,3,3,0,no
29,4,4,1,0,3,2,1,30,1,29,15.5,0,no
61,3,10,2,2,11,3,1,63,2,61,21.666667,0,no
34,6,7,4,0,2,2,2,35,1,34,18,0,no
3,2,0,0,0,0,1,1,3,0,3,3,0,no
3,2,0,0,0,0,1,1,3,0,3,3,0,no
3,6,0,0,0,0,1,1,3,0,3,3,0,no
55,4,10,2,2,10,3,1,57,2,55,19.666667,0,no
4,1,1,1,1,0,1,1,4,0,4,4,0,no
27,5,5,1,0,3,3,1,29,2,27,10.333333,0,no
24,5,4,1,0,3,3,1,26,2,24,9.333333,0,no
17,4,4,4,0,1,4,2,19,2,14,5.25,0,no
14,4,3,3,0,1,3,1,16,2,14,6,0,no
17,3,4,4,0,1,3,2,18,1,14,6.333333,0,no
4,2,0,0,0,0,1,1,4,0,4,4,0,no
2,0,0,0,0,0,1,1,2,0,2,2,0,no
19,4,2,2,0,2,2,2,20,1,19,10.5,0,no
32,4,6,3,0,2,3,2,34,2,32,12,1,no
3,1,0,0,0,0,1,1,3,0,3,3,0,no
26,3,3,1,2,4,2,2,27,1,26,14,0,no
30,5,5,3,0,2,4,3,33,3,30,9,1,no
20,5,3,1,2,3,2,2,21,1,20,11,0,no
16,4,3,3,0,1,2,2,17,1,16,9,0,no
13,4,2,2,0,1,1,1,13,0,13,13,0,no
18,3,4,3,0,1,2,2,19,1,18,10,0,no
4,2,0,0,0,0,1,1,4,0,4,4,0,no
2,0,0,0,0,0,1,1,2,0,2,2,0,no
20,4,2,1,1,3,1,1,20,0,20,20,0,no
29,4,5,3,0,3,3,2,31,2,29,11,1,no
3,1,0,0,0,0,1,1,3,0,3,3,0,no
12,5,1,1,0,2,1,1,12,0,12,12,0,no
18,3,2,1,0,2,1,1,18,0,18,18,0,no
32,5,5,3,0,4,3,2,34,2,32,12,1,no
12,5,2,1,0,1,1,1,12,0,12,12,0,no
16,4,3,3,0,1,2,2,17,1,16,9,0,no
12,4,2,1,0,1,1,1,12,0,12,12,0,no
14,3,3,3,0,1,2,2,15,1,14,8,0,no
3,1,0,0,0,0,2,2,4,1,3,2.5,1,no
3,2,0,0,0,0,1,1,3,0,3,3,1,no
13,3,0,0,1,0,1,1,13,0,13,13,1,no
5,3,0,0,0,0,2,2,6,1,5,3.5,0,no
3,0,0,0,0,0,1,1,3,0,3,3,1,no
13,3,2,0,1,4,1,1,13,0,13,13,0,no
10,5,0,0,0,1,2,1,10,0,9,5,0,no
6,0,1,1,0,0,1,1,6,0,6,6,0,no
21,1,3,2,0,3,3,2,22,1,19,7.666667,0,no
3,2,0,0,0,0,2,2,4,1,3,2.5,1,no
7,3,1,1,0,0,1,1,7,0,7,7,0,no
21,0,4,4,0,1,2,2,21,0,14,10.5,0,no
17,0,3,2,1,1,3,3,18,1,9,6.333333,1,no
35,1,7,2,2,8,3,3,36,1,22,12.333333,1,no
20,1,3,2,0,1,1,1,20,0,20,20,0,no
29,0,6,2,2,0,5,2,35,6,24,8.2,1,no
39,0,3,2,0,4,6,2,41,2,36,7.166667,1,no
21,0,5,2,1,0,1,1,21,0,21,21,0,no
29,0,2,2,0,2,8,3,31,2,24,4.125,1,no
3,2,0,0,0,0,1,1,3,0,3,3,0,no
5,1,1,1,0,0,2,2,5,0,3,2.5,1,no
3,1,0,0,0,0,1,1,3,0,3,3,1,no
3,0,0,0,0,0,1,1,3,0,3,3,0,no
3,0,0,0,0,0,2,1,4,1,3,2.5,1,no
3,0,0,0,0,0,1,1,3,0,3,3,0,no
3,0,0,0,0,0,1,1,3,0,3,3,0,no
3,0,0,0,0,0,1,1,3,0,3,3,0,no
3,0,0,0,0,0,1,1,3,0,3,3,0,no
3,0,0,0,0,0,1,1,3,0,3,3,0,no
3,0,0,0,0,0,1,1,3,0,3,3,0,no
3,0,0,0,0,0,1,1,3,0,3,3,0,no
0,0,0,0,1,0,1,1,0,0,0,0,0,no
0,0,0,0,1,0,1,1,0,0,0,0,0,no
0,0,0,0,1,0,1,1,0,0,0,0,0,no
0,0,0,0,1,0,1,1,0,0,0,0,0,no
0,0,0,0,1,0,1,1,0,0,0,0,0,no
0,0,0,0,1,0,1,1,0,0,0,0,0,no
0,0,0,0,1,0,1,1,0,0,0,0,0,no
5,3,0,0,0,0,1,1,5,0,5,5,0,no
12,0,1,1,0,1,1,1,12,0,12,12,0,no
6,0,1,1,0,1,1,1,6,0,6,6,0,no
3,0,0,0,0,0,1,1,3,0,3,3,0,no
3,0,0,0,0,0,1,1,3,0,3,3,0,no
3,0,0,0,0,0,1,1,3,0,3,3,0,no
3,0,0,0,0,0,1,1,3,0,3,3,0,no
3,1,0,0,0,0,1,1,3,0,3,3,0,no
3,0,0,0,0,0,1,1,3,0,3,3,0,no
3,0,0,0,0,0,1,1,3,0,3,3,0,no
3,0,0,0,0,0,1,1,3,0,3,3,0,no
8,6,1,0,0,0,1,1,8,0,8,8,0,no
3,0,0,0,0,0,1,1,3,0,3,3,0,no
3,0,0,0,0,0,1,1,3,0,3,3,0,no
3,0,0,0,0,0,1,1,3,0,3,3,0,no
3,0,0,0,0,0,1,1,3,0,3,3,0,no
3,0,0,0,0,0,1,1,3,0,3,3,0,no
3,0,0,0,0,0,1,1,3,0,3,3,0,no
2,0,0,0,1,0,1,1,2,0,2,2,0,no
3,0,0,0,0,0,1,1,3,0,3,3,0,no
11,0,3,2,0,3,1,1,11,0,11,11,0,no
25,1,6,3,0,1,2,2,25,0,21,12.5,1,no
6,4,0,0,0,0,1,1,6,0,6,6,0,no
14,2,2,2,0,0,3,2,17,3,16,6.666667,0,no
5,2,0,0,0,1,2,2,6,1,5,3.5,0,no
5,2,1,1,0,0,1,1,5,0,5,5,0,no
10,2,1,1,0,2,2,2,12,2,12,7,0,no
16,2,2,1,0,4,2,2,16,0,15,8,0,no
6,3,0,0,1,2,2,2,8,2,8,5,0,no
8,1,1,1,0,0,2,2,10,2,10,6,0,no
9,5,0,0,0,0,2,1,9,0,8,4.5,0,no
3,3,0,0,0,0,1,1,3,0,3,3,0,no
4,3,0,0,0,1,1,1,4,0,4,4,1,no
3,3,0,0,0,0,1,1,3,0,3,3,0,no
3,1,0,0,0,0,1,1,3,0,3,3,0,no
2,1,0,0,0,0,1,1,2,0,2,2,0,no
7,1,1,1,0,1,1,1,7,0,7,7,0,no
3,2,0,0,0,0,2,2,18,15,18,16.5,0,no
39,3,3,1,4,3,1,1,39,0,39,39,1,no
2,2,0,0,0,0,1,1,2,0,2,2,0,no
81,1,12,3,4,12,2,1,82,1,81,41.5,1,no
7,1,1,1,0,1,1,1,7,0,7,7,0,no
8,1,1,1,0,1,1,1,8,0,8,8,0,no
3,3,0,0,0,0,2,2,4,1,3,2.5,0,no
3,1,0,0,0,0,1,1,3,0,3,3,0,no
41,7,5,1,2,5,3,2,42,1,40,14.333333,1,no
3,1,0,0,0,0,1,1,3,0,3,3,0,no
27,3,4,2,4,2,1,1,27,0,27,27,0,no
3,1,0,0,0,0,1,1,3,0,3,3,0,no
3,4,0,0,0,0,1,1,3,0,3,3,1,no
3,1,0,0,0,0,1,1,3,0,3,3,0,no
3,2,0,0,0,0,1,1,3,0,3,3,0,no
7,0,1,1,0,0,1,1,7,0,7,7,0,no
3,2,0,0,1,0,1,1,3,0,3,3,0,no
3,2,0,0,1,0,1,1,3,0,3,3,0,no
3,2,0,0,1,0,1,1,3,0,3,3,1,no
2,2,0,0,0,0,1,1,2,0,2,2,1,no
18,2,1,1,2,1,1,1,18,0,18,18,1,no
3,2,0,0,1,0,1,1,3,0,3,3,1,no
2,2,0,0,0,0,1,1,2,0,2,2,1,no
40,4,5,2,3,4,2,1,41,1,40,21,1,no
4,2,0,0,1,0,1,1,4,0,4,4,0,no
11,2,1,1,1,2,1,1,11,0,11,11,0,no
2,3,0,0,2,0,1,1,2,0,2,2,0,no
35,3,5,1,2,4,2,1,35,0,34,17.5,1,no
3,2,0,0,0,0,1,1,3,0,3,3,0,no
5,2,0,0,0,0,1,1,5,0,5,5,0,no
3,3,0,0,0,0,1,1,3,0,3,3,0,no
37,2,6,2,3,7,1,1,37,0,37,37,1,no
13,2,2,2,0,2,3,1,24,11,23,11.666667,1,no
33,3,6,3,2,5,1,1,33,0,33,33,1,no
54,4,6,2,4,9,2,1,54,0,50,27,1,no
20,0,2,1,0,0,3,2,34,14,33,16,1,no
3,2,0,0,0,0,1,1,3,0,3,3,0,no
7,2,1,1,0,0,2,1,8,1,7,4.5,1,no
26,3,5,2,3,5,4,2,50,1,40,12.75,1,no
49,3,6,2,4,9,4,2,50,1,40,12.75,1,no
31,4,4,2,2,7,4,2,32,1,22,8.25,1,no
3,3,0,0,0,0,1,1,3,0,3,3,0,no
24,1,2,1,2,5,2,1,24,0,23,12,1,no
9,0,1,1,1,1,1,1,9,0,9,9,0,no
17,3,2,1,2,3,2,1,17,0,16,8.5,1,no
4,2,0,0,0,0,1,1,4,0,4,4,0,no
21,0,4,2,0,5,2,1,26,5,26,15.5,1,no
3,1,0,0,0,0,1,1,3,0,3,3,1,no
4,2,0,0,0,0,1,1,4,0,4,4,1,no
4,0,0,0,0,0,1,1,4,0,4,4,1,no
4,1,0,0,0,0,1,1,4,0,4,4,0,no
3,0,0,0,0,0,5,4,53,50,49,20.6,1,no
3,1,0,0,0,0,3,2,5,2,4,2.333333,1,no
7,4,0,0,0,0,1,1,7,0,7,7,1,no
73,3,11,2,6,7,7,3,78,5,66,11.857143,1,no
8,0,2,1,0,0,2,2,9,1,8,5,1,no
13,1,2,2,0,2,2,2,14,1,13,7.5,1,no
11,3,1,1,2,1,1,1,11,0,11,11,0,no
40,4,6,2,3,4,6,3,45,5,39,8.333333,1,no
3,1,0,0,0,0,1,1,3,0,3,3,0,no
14,0,4,2,0,2,1,1,14,0,14,14,0,no
4,2,0,0,0,0,1,1,4,0,4,4,0,no
6,0,1,1,0,1,1,1,6,0,6,6,0,no
4,4,0,0,0,0,1,1,4,0,4,4,1,no
45,0,6,3,0,10,3,1,46,1,36,15.666667,1,no
3,2,0,0,0,0,1,1,3,0,3,3,0,no
7,2,1,1,0,1,1,1,7,0,7,7,0,no
4,2,0,0,0,0,1,1,4,0,4,4,0,no
17,1,7,2,6,1,1,1,17,0,17,17,0,no
3,0,0,0,0,0,1,1,3,0,3,3,0,no
3,0,0,0,0,0,1,1,3,0,3,3,0,no
7,0,1,0,0,2,1,1,7,0,7,7,0,no
3,0,0,0,0,0,1,1,3,0,3,3,0,no
2,0,0,0,2,0,1,1,2,0,2,2,0,no
7,2,1,1,0,0,1,1,7,0,7,7,0,no
3,0,0,0,0,0,1,1,3,0,3,3,0,no
6,0,1,1,0,0,1,1,6,0,6,6,0,no
3,0,0,0,0,0,1,1,3,0,3,3,0,no
3,2,0,0,0,0,1,1,3,0,3,3,0,no
7,1,2,2,0,1,2,2,7,0,6,3.5,0,no
13,2,3,2,1,1,3,3,15,2,14,5.666667,0,no
0,0,0,0,1,0,1,1,0,0,0,0,0,no
0,0,0,0,1,0,1,1,0,0,0,0,0,no
12,0,3,1,2,0,1,1,12,0,12,12,0,no
16,2,2,2,0,3,1,1,16,0,16,16,0,no
2,1,0,0,0,0,1,1,2,0,2,2,0,no
2,1,0,0,0,0,1,1,2,0,2,2,0,no
30,2,6,3,5,4,3,3,30,0,21,10,1,no
18,2,3,3,0,2,2,2,18,0,9,9,1,no
2,2,0,0,0,0,1,1,2,0,2,2,0,no
12,1,2,1,0,2,1,1,12,0,12,12,0,no
18,0,4,3,1,1,1,1,18,0,18,18,0,no
3,1,0,0,0,0,1,1,3,0,3,3,0,no
3,3,0,0,0,0,1,1,3,0,3,3,0,no
7,1,0,0,1,3,3,3,8,1,4,3,1,no
3,0,0,0,0,0,1,1,3,0,3,3,0,no
47,1,6,3,4,10,2,2,48,1,47,24.5,0,no
4,0,0,0,0,0,1,1,4,0,4,4,0,no
4,1,0,0,1,0,1,1,4,0,4,4,0,no
76,7,13,5,4,11,2,2,76,0,68,38,1,no
4,1,0,0,1,0,1,1,4,0,4,4,0,no
2,2,0,0,0,0,1,1,2,0,2,2,0,no
2,0,0,0,0,0,1,1,2,0,2,2,0,no
8,0,1,1,0,0,1,1,8,0,8,8,0,no
8,0,1,1,0,0,1,1,8,0,8,8,1,no
4,4,0,0,0,1,1,1,4,0,4,4,0,no
8,3,1,1,0,1,1,1,8,0,8,8,0,no
14,3,3,2,0,1,1,1,14,0,14,14,0,no
6,4,0,0,0,0,1,1,6,0,6,6,0,no
3,0,0,0,0,0,1,1,3,0,3,3,0,no
3,0,0,0,0,0,1,1,3,0,3,3,0,no
3,0,0,0,0,0,1,1,3,0,3,3,0,no
3,0,0,0,0,0,1,1,3,0,3,3,0,no
0,1,0,0,1,0,1,1,0,0,0,0,0,no
0,1,0,0,1,0,1,1,0,0,0,0,0,no
0,2,0,0,1,0,1,1,0,0,0,0,0,no
0,2,0,0,1,0,1,1,0,0,0,0,0,no
0,1,0,0,1,0,1,1,0,0,0,0,0,no
0,3,0,0,1,0,1,1,0,0,0,0,0,no
0,1,0,0,1,0,1,1,0,0,0,0,0,no
0,1,0,0,1,0,1,1,0,0,0,0,0,no
0,2,0,0,1,0,1,1,0,0,0,0,0,no
0,0,0,0,1,0,1,1,0,0,0,0,0,no
0,1,0,0,1,0,1,1,0,0,0,0,0,no
8,6,0,0,0,0,1,1,8,0,8,8,0,no
3,0,0,0,0,0,1,1,3,0,3,3,0,no
3,0,0,0,0,0,1,1,3,0,3,3,0,no
3,0,0,0,0,0,1,1,3,0,3,3,0,no
3,0,0,0,0,0,1,1,3,0,3,3,0,no
3,0,0,0,0,0,1,1,3,0,3,3,0,no
3,0,0,0,0,0,1,1,3,0,3,3,0,no
7,2,0,0,0,0,3,2,8,1,5,3,1,no
22,3,2,2,1,4,4,3,28,6,15,8.5,1,yes
3,2,0,0,0,0,1,1,3,0,3,3,0,no
3,1,0,0,0,0,1,1,3,0,3,3,0,no
13,2,1,1,1,3,1,1,13,0,13,13,1,no
15,1,4,3,0,2,1,1,15,0,15,15,1,no
3,1,0,0,0,0,1,1,3,0,3,3,0,no
3,2,0,0,0,0,1,1,3,0,3,3,0,no
3,2,0,0,0,0,2,2,4,1,3,2.5,1,no
13,1,1,1,0,4,1,1,13,0,13,13,0,no
25,3,4,2,1,8,3,3,27,2,25,9.666667,1,no
17,2,2,1,1,0,2,1,17,0,15,8.5,1,no
3,1,0,0,0,0,1,1,3,0,3,3,0,no
3,3,0,0,0,0,1,1,3,0,3,3,0,no
4,1,0,0,0,1,1,1,4,0,4,4,0,no
9,1,1,1,0,0,2,1,10,1,9,5.5,1,no
4,1,0,0,0,0,1,1,4,0,4,4,1,no
24,4,4,1,0,4,3,2,29,5,17,11.333333,1,no
3,1,0,0,0,0,2,2,4,1,3,2.5,1,no
3,2,0,0,0,0,1,1,3,0,3,3,0,no
3,0,0,0,0,0,2,2,4,1,4,2.5,1,no
8,0,1,1,0,0,2,2,8,0,5,4,1,no
9,0,2,2,0,0,1,1,9,0,9,9,0,no
4,0,0,0,0,0,2,1,4,0,3,2,1,no
3,0,0,0,0,0,1,1,3,0,3,3,1,no
0,0,0,0,1,0,1,1,0,0,0,0,0,no
3,1,0,0,0,0,1,1,3,0,3,3,0,no
11,1,2,1,0,2,1,1,11,0,11,11,0,no
3,0,0,0,0,0,1,1,3,0,3,3,0,no
4,2,0,0,0,0,1,1,4,0,4,4,0,no
21,0,3,1,0,5,2,2,23,2,23,12.5,0,no
4,2,0,0,0,0,1,1,4,0,4,4,0,no
5,0,0,0,0,0,1,1,5,0,5,5,0,no
3,0,0,0,0,0,1,1,3,0,3,3,0,no
3,0,0,0,0,0,1,1,3,0,3,3,0,no
6,2,0,0,0,3,2,2,7,1,6,4,0,no
7,2,0,0,0,3,2,2,8,1,7,4.5,1,no
3,0,0,0,0,0,1,1,3,0,3,3,0,no
4,2,0,0,0,0,1,1,4,0,4,4,0,no
6,1,1,1,0,1,2,2,7,1,6,4,1,no
14,2,2,1,1,2,2,2,15,1,14,8,1,no
3,2,0,0,0,0,1,1,3,0,3,3,0,no
5,2,1,1,0,0,1,1,5,0,5,5,0,no
3,1,0,0,0,0,1,1,3,0,3,3,0,no
16,0,2,1,0,3,2,2,16,0,8,8,1,no
4,2,0,0,0,0,1,1,4,0,4,4,0,no
3,0,0,0,0,0,2,2,4,1,3,2.5,1,no
3,0,0,0,0,0,1,1,3,0,3,3,0,no
3,1,0,0,0,0,1,1,3,0,3,3,0,no
3,0,0,0,0,0,1,1,3,0,3,3,0,no
3,0,0,0,0,0,1,1,3,0,3,3,0,no
3,0,0,0,0,0,1,1,3,0,3,3,0,no
3,0,0,0,0,0,2,1,4,1,3,2.5,1,no
3,0,0,0,0,0,2,1,4,1,3,2.5,1,no
3,0,0,0,0,0,1,1,3,0,3,3,0,no
0,0,0,0,1,0,1,1,0,0,0,0,0,no
0,0,0,0,1,0,1,1,0,0,0,0,0,no
0,0,0,0,1,0,1,1,0,0,0,0,0,no
0,0,0,0,1,0,1,1,0,0,0,0,0,no
0,2,0,0,1,0,1,1,0,0,0,0,0,no
0,2,0,0,1,0,1,1,0,0,0,0,0,no
0,2,0,0,1,0,1,1,0,0,0,0,0,no
4,2,0,0,0,0,1,1,4,0,4,4,0,no
7,1,1,1,1,1,1,1,7,0,7,7,0,no
3,0,0,0,0,0,1,1,3,0,3,3,0,no
3,0,0,0,0,0,1,1,3,0,3,3,0,no
3,0,0,0,0,0,1,1,3,0,3,3,0,no
6,4,0,0,0,0,1,1,6,0,6,6,0,no
3,0,0,0,0,0,1,1,3,0,3,3,0,no
3,0,0,0,0,0,1,1,3,0,3,3,0,no
3,0,0,0,0,0,1,1,3,0,3,3,0,no
3,0,0,0,0,0,1,1,3,0,3,3,0,no
3,1,0,0,0,0,1,1,3,0,3,3,0,no
3,2,0,0,0,0,1,1,3,0,3,3,0,no
3,2,0,0,0,0,2,2,10,7,10,8.5,0,no
10,1,2,1,0,2,1,1,10,0,10,10,0,no
9,3,2,1,0,1,1,1,9,0,9,9,0,no
3,2,0,0,0,0,1,1,3,0,3,3,0,no
10,2,2,2,0,3,1,1,10,0,10,10,0,no
16,2,3,1,0,2,1,1,16,0,16,16,0,no
2,2,0,0,2,0,1,1,2,0,2,2,0,no
2,2,0,0,2,0,1,1,2,0,2,2,0,no
3,1,0,0,0,0,1,1,3,0,3,3,0,no
9,2,0,0,1,0,2,2,21,12,21,16.5,1,no
3,0,0,0,0,0,1,1,3,0,3,3,1,no
3,0,0,0,0,0,1,1,3,0,3,3,0,no
3,0,0,0,0,0,1,1,3,0,3,3,1,no
11,0,0,0,0,0,3,2,12,1,10,4.333333,1,no
14,0,0,0,0,4,2,2,14,0,13,7,0,no
22,1,4,2,2,4,2,2,23,1,22,12,1,no
5,0,0,0,0,0,2,2,6,1,5,3.5,0,no
14,0,0,0,0,1,1,1,14,0,14,14,1,no
7,0,0,0,0,0,1,1,7,0,7,7,0,no
3,2,0,0,0,0,1,1,3,0,3,3,0,no
4,2,0,0,0,0,1,1,4,0,4,4,0,no
19,2,1,1,0,2,1,1,19,0,19,19,0,no
3,2,0,0,0,0,1,1,3,0,3,3,0,no
4,2,0,0,0,0,1,1,4,0,4,4,0,no
3,0,0,0,0,0,1,1,3,0,3,3,0,no
3,0,0,0,0,0,1,1,3,0,3,3,0,no
3,1,0,0,0,0,1,1,3,0,3,3,0,no
12,2,2,1,0,1,1,1,12,0,12,12,0,no
3,1,0,0,0,0,1,1,3,0,3,3,0,no
17,2,1,1,0,1,1,1,17,0,17,17,0,no
3,2,0,0,0,0,1,1,3,0,3,3,0,no
3,2,0,0,0,0,1,1,3,0,3,3,0,no
4,2,0,0,0,0,1,1,4,0,4,4,0,no
41,2,5,1,0,6,4,3,43,2,38,11.25,1,no
13,5,1,1,0,2,1,1,13,0,13,13,0,no
6,1,1,1,0,0,1,1,6,0,6,6,0,no
4,2,0,0,0,0,1,1,4,0,4,4,0,no
20,2,3,1,0,2,2,2,21,1,20,11,1,no
4,2,0,0,0,0,1,1,4,0,4,4,0,no
3,1,0,0,0,0,1,1,3,0,3,3,0,no
25,2,2,1,0,3,2,2,25,0,24,12.5,0,no
3,2,0,0,0,0,1,1,3,0,3,3,0,no
9,2,1,1,0,0,1,1,9,0,9,9,0,no
4,2,0,0,0,0,1,1,4,0,4,4,0,no
21,2,1,1,0,2,1,1,21,0,21,21,0,no
3,2,0,0,0,0,1,1,3,0,3,3,0,no
3,2,0,0,0,0,1,1,3,0,3,3,0,no
4,1,0,0,0,0,1,1,4,0,4,4,0,no
4,2,0,0,0,0,1,1,4,0,4,4,0,no
5,3,0,0,0,0,1,1,5,0,5,5,1,no
20,1,1,1,1,2,2,2,20,0,12,10,1,no
3,0,0,0,0,0,1,1,3,0,3,3,1,no
3,0,0,0,0,0,1,1,3,0,3,3,1,no
3,1,0,0,0,0,1,1,3,0,3,3,0,no
4,5,0,0,0,1,2,2,4,0,3,2,0,no
3,5,0,0,0,0,1,1,3,0,3,3,0,no
3,4,0,0,0,0,1,1,3,0,3,3,0,no
4,3,0,0,0,1,2,2,4,0,3,2,0,no
3,3,0,0,0,0,1,1,3,0,3,3,0,no
3,2,0,0,0,0,1,1,3,0,3,3,0,no
12,5,2,1,1,1,3,3,13,1,8,4.666667,1,no
66,5,13,3,11,1,4,2,68,2,63,17.5,1,no
15,3,3,1,1,3,5,4,61,46,58,21.4,1,no
37,1,6,4,4,3,3,3,38,1,22,13,1,no
13,2,2,1,0,1,2,2,14,1,13,7.5,1,no
16,3,2,1,0,1,2,2,17,1,16,9,1,no
6,0,1,1,0,1,3,3,7,1,5,2.666667,1,no
8,0,1,1,0,1,3,3,21,1,14,7.333333,1,no
9,0,3,1,1,3,3,3,21,1,14,7.333333,1,no
20,0,4,4,1,3,3,3,21,1,14,7.333333,1,no
4,2,1,1,2,0,3,3,6,2,4,2.666667,1,no
4,2,1,1,1,0,3,3,6,2,4,2.666667,1,no
8,2,2,1,2,0,2,2,9,1,8,5,1,no
38,2,8,2,8,0,4,2,40,2,35,10.5,1,no
19,5,3,1,3,0,3,2,21,2,19,7.666667,1,no
5,2,1,1,2,0,2,2,6,1,5,3.5,1,no
5,2,1,1,1,0,2,1,6,1,5,3.5,0,no
49,0,7,3,0,8,3,2,57,8,56,21.666667,1,no
3,0,0,0,0,0,2,1,6,3,6,4.5,1,no
3,2,0,0,0,0,1,1,3,0,3,3,1,no
3,2,0,0,0,0,1,1,3,0,3,3,1,no
12,1,1,1,0,2,1,1,12,0,12,12,0,no
3,0,0,0,0,0,1,1,3,0,3,3,0,no
10,5,1,1,0,0,1,1,10,0,10,10,0,no
3,3,0,0,0,0,1,1,3,0,3,3,0,no
3,1,0,0,0,0,1,1,3,0,3,3,0,no
3,4,0,0,0,0,1,1,3,0,3,3,0,no
0,5,0,0,1,0,1,1,0,0,0,0,0,no
0,5,0,0,0,0,1,1,0,0,0,0,0,no
5,1,2,2,2,1,1,1,5,0,5,5,0,no
0,0,0,0,0,0,1,1,0,0,0,0,0,no
3,1,0,0,0,0,6,2,8,5,5,2.166667,1,no
6,4,1,1,0,2,1,1,6,0,6,6,0,no
3,1,1,1,1,1,1,1,3,0,3,3,0,no
0,4,0,0,1,0,1,1,0,0,0,0,0,no
0,3,0,0,1,0,1,1,0,0,0,0,0,no
0,6,0,0,0,0,1,1,0,0,0,0,0,no
3,5,0,0,0,0,1,1,3,0,3,3,0,no
3,5,0,0,0,0,1,1,3,0,3,3,0,no
22,0,2,2,0,3,3,2,23,1,19,8,1,no
3,4,0,0,0,0,1,1,3,0,3,3,0,no
20,1,4,2,0,3,2,1,21,1,20,11,0,no
0,6,0,0,0,0,1,1,0,0,0,0,0,no
35,5,2,1,0,2,2,1,35,0,25,17.5,0,no
35,5,2,1,0,2,2,1,35,0,25,17.5,0,no
16,3,3,3,0,4,1,1,16,0,16,16,0,no
17,2,1,1,0,0,1,1,17,0,17,17,0,no
17,2,1,1,0,0,1,1,17,0,17,17,0,no
4,2,0,0,0,0,1,1,4,0,4,4,0,no
4,2,0,0,0,0,1,1,4,0,4,4,0,no
3,2,0,0,0,0,1,1,3,0,3,3,0,no
3,2,0,0,0,0,1,1,3,0,3,3,0,no
4,2,0,0,0,0,1,1,4,0,4,4,0,no
4,2,0,0,0,0,1,1,4,0,4,4,0,no
3,2,0,0,0,0,1,1,3,0,3,3,1,no
3,2,0,0,0,0,1,1,3,0,3,3,1,no
3,3,0,0,0,0,1,1,3,0,3,3,0,no
34,0,2,1,2,1,4,3,38,4,36,10.5,1,no
3,2,0,0,0,0,1,1,3,0,3,3,0,no
21,2,1,1,2,1,3,3,25,4,24,9.666667,0,no
4,2,0,0,1,0,1,1,4,0,4,4,0,no
5,2,0,0,1,0,1,1,5,0,5,5,0,no
3,4,0,0,1,0,1,1,3,0,3,3,0,no
3,0,0,0,0,0,1,1,3,0,3,3,0,no
5,5,0,0,0,0,1,1,5,0,5,5,0,no
33,0,5,2,0,2,4,2,34,1,20,8.75,1,no
3,2,0,0,0,0,1,1,3,0,3,3,1,no
4,2,0,0,0,0,1,1,4,0,4,4,1,no
25,0,7,3,6,7,6,3,26,1,18,4.5,1,no
3,2,0,0,0,0,1,1,3,0,3,3,1,no
2,2,0,0,2,0,1,1,2,0,2,2,1,no
3,3,0,0,0,0,2,1,6,0,3,3,1,no
36,0,6,3,2,3,5,2,43,7,22,10,1,no
18,0,5,3,0,2,5,2,25,7,19,6.4,1,no
4,2,0,0,1,0,1,1,4,0,4,4,1,no
4,2,0,0,1,0,2,1,4,0,3,2,1,no
5,5,0,0,0,0,1,1,5,0,5,5,0,no
97,0,10,3,4,11,9,3,107,10,55,13,1,no
3,2,0,0,0,0,1,1,3,0,3,3,0,no
3,2,0,0,0,0,1,1,3,0,3,3,0,no
32,2,1,1,4,1,1,1,32,0,32,32,0,no
7,2,1,1,0,0,8,3,41,34,25,9.375,1,no
17,2,0,0,2,0,6,3,25,8,16,5.5,1,no
5,2,0,0,0,0,5,2,8,3,4,2.2,0,no
3,0,0,0,0,0,1,1,3,0,3,3,0,no
4,2,0,0,1,0,1,1,4,0,4,4,0,no
3,2,0,0,0,0,1,1,3,0,3,3,0,no
4,4,0,0,0,0,1,1,4,0,4,4,0,no
25,0,3,1,1,1,6,3,28,3,24,5.166667,1,no
3,2,0,0,0,0,1,1,3,0,3,3,0,no
7,2,1,1,1,0,1,1,7,0,7,7,0,no
8,1,1,1,0,1,1,1,8,0,8,8,0,no
4,3,0,0,0,0,1,1,4,0,4,4,0,no
7,1,1,1,1,0,2,2,8,1,7,4.5,0,no
2,0,0,0,0,0,1,1,2,0,2,2,0,no
3,5,0,0,0,0,1,1,3,0,3,3,0,no
3,5,0,0,0,0,1,1,3,0,3,3,0,no
3,5,0,0,0,0,1,1,3,0,3,3,0,no
3,0,0,0,0,0,1,1,3,0,3,3,0,no
9,1,2,1,1,1,3,2,9,0,4,3,1,no
13,4,2,1,0,2,2,2,13,0,8,6.5,1,no
8,3,1,1,0,1,2,2,9,1,8,5,1,no
3,6,0,0,0,0,1,1,3,0,3,3,0,no
3,6,0,0,0,0,1,1,3,0,3,3,0,no
3,2,0,0,0,0,1,1,3,0,3,3,0,no
13,3,1,1,0,1,2,1,13,0,12,6.5,1,no
3,0,0,0,0,0,1,1,3,0,3,3,0,no
3,0,0,0,0,0,1,1,3,0,3,3,1,no
3,0,0,0,0,0,1,1,3,0,3,3,0,no
3,0,0,0,0,0,1,1,3,0,3,3,0,no
3,0,0,0,0,0,1,1,3,0,3,3,0,no
12,2,2,1,0,1,2,2,12,0,8,6,1,no
8,0,1,1,0,1,1,1,8,0,8,8,1,no
3,1,0,0,0,0,1,1,3,0,3,3,1,no
3,1,0,0,0,0,1,1,3,0,3,3,0,no
4,0,0,0,0,1,2,1,4,0,3,2,0,no
52,1,13,5,0,7,4,2,53,1,40,13.5,1,no
4,6,0,0,0,0,1,1,4,0,4,4,0,no
3,5,0,0,0,0,1,1,3,0,3,3,0,no
3,5,0,0,0,0,1,1,3,0,3,3,0,no
3,0,0,0,0,0,1,1,3,0,3,3,0,no
16,4,1,1,0,0,1,1,16,0,16,16,0,no
17,3,1,1,0,3,3,1,17,0,13,5.666667,0,no
3,6,0,0,0,0,1,1,3,0,3,3,0,no
8,0,1,1,0,0,1,1,8,0,8,8,0,no
3,6,0,0,0,0,1,1,3,0,3,3,0,no
3,2,0,0,0,0,1,1,3,0,3,3,0,no
8,2,1,1,0,3,2,1,8,0,7,4,0,no
3,2,0,0,0,0,1,1,3,0,3,3,0,no
7,2,1,1,0,0,1,1,7,0,7,7,0,no
0,3,0,0,1,0,1,1,0,0,0,0,0,no
0,1,0,0,1,0,1,1,0,0,0,0,0,no
0,1,0,0,1,0,1,1,0,0,0,0,0,no
0,4,0,0,1,0,1,1,0,0,0,0,0,no
0,5,0,0,1,0,1,1,0,0,0,0,0,no
0,5,0,0,1,0,1,1,0,0,0,0,0,no
0,0,0,0,1,0,1,1,0,0,0,0,1,no
0,4,0,0,1,0,1,1,0,0,0,0,0,no
12,2,1,1,0,1,2,2,12,0,6,6,0,no
3,1,0,0,0,0,1,1,3,0,3,3,0,no
3,4,0,0,0,0,1,1,3,0,3,3,0,no
3,1,0,0,0,0,1,1,3,0,3,3,0,no
34,3,2,1,4,4,4,3,45,11,35,14,1,yes
0,3,0,0,0,0,1,1,0,0,0,0,0,no
0,4,0,0,0,0,1,1,0,0,0,0,0,no
5,3,1,1,1,1,2,2,6,1,5,3.5,0,no
3,3,0,0,0,0,1,1,3,0,3,3,0,no
15,2,1,1,2,0,1,1,15,0,15,15,0,no
2,0,0,0,0,0,1,1,2,0,2,2,1,no
3,2,0,0,1,0,1,1,3,0,3,3,0,yes
6,2,1,1,1,0,1,1,6,0,6,6,0,yes
12,2,0,0,4,1,2,2,12,0,8,6,1,yes
12,2,1,1,0,0,3,3,23,11,21,11.333333,0,no
4,2,0,0,2,0,1,1,4,0,4,4,1,no
3,2,0,0,2,0,1,1,3,0,3,3,1,no
3,0,0,0,0,0,3,3,14,11,12,8.333333,0,no
4,4,0,0,0,0,1,1,4,0,4,4,0,no
3,0,0,0,0,0,1,1,3,0,3,3,0,no
3,3,0,0,0,0,2,2,4,1,3,2.5,0,no
4,4,0,0,0,0,1,1,4,0,4,4,0,no
10,0,2,2,0,1,2,2,10,0,7,5,0,no
6,1,1,1,1,0,1,1,6,0,6,6,0,no
3,2,0,0,0,0,1,1,3,0,3,3,0,no
5,3,0,0,0,0,1,1,5,0,5,5,0,no
22,1,5,2,0,1,1,1,22,0,22,22,0,no
3,0,0,0,0,0,1,1,3,0,3,3,0,no
6,0,1,1,0,0,1,1,6,0,6,6,0,no
3,0,0,0,0,0,1,1,3,0,3,3,0,no
3,0,0,0,0,0,1,1,3,0,3,3,0,no
30,1,5,2,2,6,1,1,30,0,30,30,0,no
3,0,0,0,0,0,1,1,3,0,3,3,0,no
3,1,0,0,0,0,1,1,3,0,3,3,0,no
3,2,0,0,0,0,1,1,3,0,3,3,0,no
3,1,0,0,0,0,1,1,3,0,3,3,0,no
3,1,0,0,0,0,1,1,3,0,3,3,0,no
3,1,2,0,1,0,1,1,3,0,3,3,0,no
6,1,1,1,1,0,1,1,6,0,6,6,0,no
3,0,0,0,0,0,1,1,3,0,3,3,0,no
22,1,4,2,2,4,1,1,22,0,22,22,0,no
4,1,0,0,0,0,1,1,4,0,4,4,0,no
3,0,0,0,0,0,1,1,3,0,3,3,0,no
3,0,0,0,0,0,1,1,3,0,3,3,0,no
3,1,0,0,0,0,1,1,3,0,3,3,0,no
3,2,0,0,0,0,1,1,3,0,3,3,0,no
0,2,0,0,1,0,1,1,0,0,0,0,0,no
0,3,0,0,1,0,1,1,0,0,0,0,0,no
0,1,0,0,1,0,1,1,0,0,0,0,0,no
0,3,0,0,1,0,1,1,0,0,0,0,0,no
0,0,0,0,1,0,1,1,0,0,0,0,0,no
0,1,0,0,1,0,1,1,0,0,0,0,0,no
0,0,0,0,1,0,1,1,0,0,0,0,0,no
0,0,0,0,1,0,1,1,0,0,0,0,0,no
0,0,0,0,1,0,1,1,0,0,0,0,0,no
40,4,1,1,1,3,1,1,40,0,40,40,0,no
44,3,4,1,6,1,1,1,44,0,44,44,0,yes
12,4,2,1,0,1,2,1,12,0,11,6,0,no
8,0,1,1,1,0,1,1,8,0,8,8,0,no
4,2,0,0,0,0,1,1,4,0,4,4,0,no
4,2,0,0,1,0,1,1,4,0,4,4,0,no
4,2,0,0,0,0,1,1,4,0,4,4,0,no
34,2,4,1,5,1,1,1,34,0,34,34,0,no
9,2,1,1,2,0,1,1,9,0,9,9,0,no
3,2,0,0,0,0,1,1,3,0,3,3,0,no
3,0,0,0,0,0,1,1,3,0,3,3,0,no
3,0,0,0,0,0,1,1,3,0,3,3,0,no
3,0,0,0,0,0,1,1,3,0,3,3,0,no
5,3,0,0,0,0,1,1,5,0,5,5,0,no
18,1,1,1,1,0,1,1,18,0,18,18,0,no
18,1,1,1,0,0,1,1,18,0,18,18,0,no
5,1,0,0,0,0,1,1,5,0,5,5,0,no
49,0,5,2,0,2,2,1,50,1,49,25.5,1,no
19,2,1,1,0,0,1,1,19,0,19,19,0,no
4,2,0,0,1,0,1,1,4,0,4,4,0,no
8,2,1,1,0,0,1,1,8,0,8,8,0,no
3,2,0,0,0,0,1,1,3,0,3,3,0,no
40,2,5,2,0,2,2,1,41,1,40,21,1,no
3,2,0,0,0,0,1,1,3,0,3,3,0,no
7,2,1,1,0,0,1,1,7,0,7,7,0,no
8,2,1,1,0,0,1,1,8,0,8,8,0,no
8,2,1,1,0,0,1,1,8,0,8,8,0,no
3,2,0,0,0,0,1,1,4,0,4,4,0,no
4,2,0,0,0,0,1,1,4,0,4,4,0,no
0,1,0,0,1,0,1,1,0,0,0,0,0,no
0,4,0,0,1,0,1,1,0,0,0,0,0,no
0,1,0,0,1,0,1,1,0,0,0,0,0,no
0,3,0,0,1,0,1,1,0,0,0,0,0,no
0,0,0,0,1,0,1,1,0,0,0,0,1,no
0,3,0,0,1,0,1,1,0,0,0,0,0,no
0,1,0,0,1,0,1,1,0,0,0,0,0,no
3,2,0,0,0,0,1,1,3,0,3,3,0,no
3,3,0,0,0,0,1,1,3,0,3,3,0,no
8,4,1,1,0,1,2,2,8,0,7,4,0,no
2,0,0,0,0,0,1,1,2,0,2,2,1,no
8,3,0,0,0,0,1,1,8,0,8,8,0,no
13,2,1,1,0,1,1,1,13,0,13,13,0,no
43,3,7,3,4,9,3,3,46,3,45,16.333333,0,no
4,1,0,0,1,1,1,1,4,0,4,4,0,no
18,3,3,3,0,0,1,1,18,0,18,18,0,no
3,1,0,0,0,0,1,1,3,0,3,3,0,no
42,3,4,2,1,3,2,2,43,1,42,22,0,no
9,0,2,1,1,0,1,1,9,0,9,9,0,no
5,1,0,0,0,1,3,3,8,3,7,3.666667,0,no
8,4,1,1,0,1,1,1,8,0,8,8,0,yes
31,5,6,3,3,3,3,3,34,3,33,12.333333,0,no
13,4,3,3,0,0,1,1,13,0,13,13,0,no
36,4,4,2,1,2,1,1,36,0,36,36,0,no
10,4,1,1,0,0,1,1,10,0,10,10,0,no
9,3,1,1,1,1,1,1,9,0,9,9,0,no
5,4,1,1,0,0,1,1,5,0,5,5,0,no
25,1,8,4,0,0,1,1,25,0,25,25,0,yes
39,3,1,1,0,3,3,2,43,4,42,15.666667,1,no
3,1,0,0,0,0,1,1,3,0,3,3,0,no
42,3,5,2,3,5,3,3,43,1,34,14.666667,0,yes
12,4,2,1,0,1,2,2,12,0,11,6,0,no
8,0,1,1,0,0,2,1,10,2,10,6,1,no
4,2,0,0,0,0,1,1,4,0,4,4,0,no
4,2,0,0,0,0,1,1,4,0,4,4,0,no
3,0,0,0,0,0,1,1,3,0,3,3,0,no
3,0,0,0,0,0,1,1,3,0,3,3,0,no
3,0,0,0,0,0,1,1,3,0,3,3,0,no
37,5,5,2,3,5,3,3,38,1,29,13,0,no
8,3,1,1,0,1,1,1,8,0,8,8,0,no
7,4,0,0,0,0,1,1,7,0,7,7,0,no
18,0,1,1,1,0,2,2,18,0,14,9,0,no
22,0,4,2,0,1,3,3,24,2,22,8.666667,0,no
6,0,1,1,2,0,1,1,6,0,6,6,0,no
41,0,6,3,2,4,3,3,42,1,36,14.333333,0,no
4,2,0,0,1,0,1,1,4,0,4,4,0,no
8,2,1,1,0,0,1,1,8,0,8,8,0,no
36,5,6,3,2,4,3,3,37,1,31,12.666667,0,no
8,3,1,1,0,1,1,1,8,0,8,8,0,no
14,4,3,2,0,1,2,2,15,1,14,8,0,no
7,4,1,1,1,0,1,1,7,0,7,7,0,no
0,4,0,0,0,0,1,1,0,0,0,0,0,no
7,3,1,1,1,0,1,1,7,0,7,7,0,no
0,3,0,0,0,0,1,1,0,0,0,0,0,no
7,3,1,1,1,0,1,1,7,0,7,7,0,no
0,3,0,0,0,0,1,1,0,0,0,0,0,no
7,3,1,1,1,0,1,1,7,0,7,7,0,no
0,3,0,0,0,0,1,1,0,0,0,0,0,no
7,4,1,1,1,0,1,1,7,0,7,7,0,no
0,4,0,0,0,0,1,1,0,0,0,0,0,no
4,1,0,0,0,1,1,1,4,0,4,4,0,no
3,1,0,0,0,0,1,1,3,0,3,3,0,no
7,5,1,1,1,0,1,1,7,0,7,7,0,no
0,5,0,0,0,0,1,1,0,0,0,0,0,no
7,4,1,1,1,0,1,1,7,0,7,7,0,no
0,4,0,0,0,0,1,1,0,0,0,0,0,no
7,5,1,1,1,0,1,1,7,0,7,7,0,no
0,5,0,0,0,0,1,1,0,0,0,0,0,no
7,4,1,1,1,0,1,1,7,0,7,7,0,no
0,4,0,0,0,0,1,1,0,0,0,0,0,no
7,4,1,1,1,0,1,1,7,0,7,7,0,no
0,4,0,0,0,0,1,1,0,0,0,0,0,no
7,3,1,1,1,0,1,1,7,0,7,7,0,no
0,3,0,0,0,0,1,1,0,0,0,0,0,no
22,5,2,1,1,1,2,2,23,1,22,12,0,no
21,7,2,1,0,0,1,1,21,0,21,21,0,no
5,3,0,0,1,1,1,1,5,0,5,5,0,no
16,4,2,1,0,0,1,1,16,0,16,16,0,no
7,4,1,1,0,0,1,1,7,0,7,7,0,no
8,4,0,0,1,0,1,1,8,0,8,8,0,no
18,1,2,2,0,3,1,1,18,0,18,18,1,no
75,1,4,1,2,25,4,2,76,1,67,19.25,1,no
3,0,0,0,0,0,1,1,3,0,3,3,0,no
5,0,1,1,0,0,1,1,5,0,5,5,0,no
7,5,1,1,1,0,1,1,7,0,7,7,0,no
7,1,1,1,0,0,1,1,7,0,7,7,0,no
9,5,2,1,1,0,1,1,9,0,9,9,0,no
107,1,16,7,2,20,3,2,108,1,103,36.333333,1,no
62,3,11,5,2,14,1,1,62,0,62,62,0,no
4,1,0,0,0,1,1,1,4,0,4,4,0,no
13,2,2,2,1,2,1,1,13,0,13,13,0,no
42,1,9,6,1,7,2,1,43,1,42,22,0,no
3,0,0,0,1,0,2,1,4,1,3,2.5,0,no
5,1,1,1,0,0,1,1,5,0,5,5,0,no
17,7,2,2,1,1,1,1,17,0,17,17,0,no
11,4,1,1,0,2,2,1,11,0,9,5.5,0,no
6,0,1,1,0,1,1,1,6,0,6,6,0,no
3,0,0,0,0,0,1,1,3,0,3,3,0,no
3,0,0,0,0,0,1,1,3,0,3,3,0,no
3,0,0,0,0,0,1,1,3,0,3,3,0,no
137,1,15,3,9,37,6,3,140,3,104,23.833333,1,yes
11,2,1,1,0,5,1,1,11,0,11,11,0,no
64,0,10,3,5,10,3,2,64,0,60,21.333333,0,no
3,1,0,0,0,0,1,1,3,0,3,3,0,no
33,6,3,2,3,7,3,3,34,1,32,11.666667,1,no
10,0,2,2,2,0,2,1,11,1,10,6,0,no
4,0,0,0,1,0,1,1,4,0,4,4,0,no
5,1,1,1,0,0,1,1,5,0,5,5,0,no
5,1,1,1,0,0,1,1,5,0,5,5,0,no
5,1,1,1,0,0,1,1,5,0,5,5,0,no
4,2,0,0,0,0,2,2,5,1,4,3,0,no
15,3,1,1,0,1,1,1,15,0,15,15,0,no
3,0,0,0,0,0,1,1,3,0,3,3,0,no
19,1,4,1,2,3,2,2,20,1,19,10.5,1,no
11,2,1,1,0,2,2,2,12,1,11,6.5,1,no
14,2,1,1,1,2,2,2,15,1,14,8,1,no
127,1,23,5,7,41,5,3,135,8,93,28.6,1,no
4,0,0,0,1,0,1,1,4,0,4,4,0,no
7,4,0,0,0,0,1,1,7,0,7,7,0,no
6,4,1,1,0,0,1,1,6,0,6,6,0,no
29,0,5,3,2,5,1,1,29,0,29,29,0,no
6,3,0,0,0,0,1,1,6,0,6,6,0,no
22,0,2,2,2,5,1,1,22,0,22,22,0,no
6,3,0,0,0,0,1,1,6,0,6,6,0,no
22,0,2,2,1,5,1,1,22,0,22,22,0,no
18,1,0,0,1,0,21,3,114,96,85,10,1,no
14,4,2,2,0,1,3,1,5,9,5,4.666667,0,no
5,2,0,0,0,2,3,1,9,4,8,4.333333,0,no
8,4,0,0,0,2,3,2,11,3,10,4.666667,0,no
25,1,4,2,0,5,3,3,26,1,21,9,1,no
66,1,15,4,3,10,4,2,67,1,51,17,1,no
15,1,4,3,2,2,1,1,15,0,15,15,0,no
19,2,1,1,0,4,2,1,19,0,13,9.5,1,no
37,3,8,4,1,4,1,1,37,0,37,37,0,no
11,1,2,1,0,2,2,1,11,0,8,5.5,1,no
7,1,1,1,0,2,1,1,7,0,7,7,1,no
3,1,0,0,0,0,2,2,4,1,3,2.5,1,no
3,0,0,0,0,0,1,1,3,0,3,3,0,no
14,1,2,1,0,2,5,4,17,3,10,4,1,no
20,0,0,0,0,0,1,1,20,0,20,20,0,no
3,0,0,0,0,0,1,1,3,0,3,3,0,no
15,2,1,1,0,3,4,2,19,4,9,5.75,1,no
3,0,0,0,0,0,2,2,4,1,3,2.5,0,no
7,1,1,1,0,0,2,2,8,1,8,4.5,1,no
3,0,0,0,0,0,1,1,3,0,3,3,0,no
3,0,0,0,0,0,0,0,0,0,0,0,0,no
18,1,1,1,0,6,3,2,3,2,2,1.666667,1,no
14,2,1,1,1,1,3,2,25,11,25,12,1,no
5,2,0,0,0,1,3,2,1,7,4,2.666667,1,no
45,0,8,5,0,8,6,3,97,52,81,24.833333,1,no
11,4,1,1,0,1,3,1,15,4,10,6.333333,0,no
30,1,6,3,2,3,1,1,30,0,30,30,1,no
16,1,2,2,0,0,3,1,18,2,16,6.666667,0,no
11,0,2,1,0,0,8,4,25,62,52,10.875,1,no
3,0,0,0,0,0,5,3,6,15,14,4.2,1,no
26,1,4,3,2,0,10,2,34,8,23,4.2,1,no
28,0,3,1,2,0,12,3,39,11,19,4.166667,1,no
36,0,8,3,2,0,4,2,38,2,33,10,0,no
11,1,1,1,2,0,2,1,14,3,14,8.5,0,no
18,0,4,2,0,0,2,1,19,1,18,10,0,no
6,2,1,1,0,0,1,1,6,0,6,6,1,no
3,1,0,0,0,0,1,1,3,0,3,3,1,no
3,0,0,0,0,0,1,1,3,0,3,3,1,no
3,2,0,0,0,0,1,1,3,0,3,3,1,no
3,0,0,0,0,0,1,1,3,0,3,3,1,no
3,0,0,0,0,0,1,1,3,0,3,3,1,no
40,3,8,5,0,8,2,2,40,0,29,20,1,no
3,0,0,0,0,0,1,1,3,0,3,3,0,no
3,1,0,0,0,0,1,1,3,0,3,3,0,no
2,1,0,0,0,0,1,1,2,0,2,2,0,no
4,0,0,0,0,0,1,1,4,0,4,4,0,no
3,0,0,0,1,0,1,1,3,0,3,3,0,no
5,1,1,1,0,0,1,1,5,0,5,5,1,no
8,1,1,1,0,0,1,1,8,0,8,8,1,no
22,3,3,1,2,0,1,1,22,0,22,22,1,no
17,5,3,1,2,0,1,1,17,0,17,17,1,no
3,1,0,0,0,0,1,1,3,0,3,3,1,no
4,0,0,0,0,0,1,1,4,0,4,4,1,no
6,2,1,1,0,0,2,2,6,0,4,3,1,no
3,0,0,0,0,0,1,1,3,0,3,3,1,no
3,0,0,0,0,0,1,1,3,0,3,3,1,no
5,1,0,0,0,0,1,1,5,0,5,5,1,no
3,0,0,0,0,0,0,0,0,0,0,0,0,no
5,0,1,1,0,0,0,0,0,0,0,0,0,no
6,5,1,1,0,0,0,0,0,0,0,0,0,no
3,0,0,0,0,0,1,1,3,0,3,3,1,no
6,5,1,1,0,0,1,1,6,0,6,6,1,no
5,3,0,0,0,0,1,1,5,0,5,5,1,no
3,2,0,0,0,0,1,1,0,2,2,2,1,no
3,0,0,0,0,0,0,0,0,0,0,0,0,no
3,0,0,0,0,0,0,0,0,0,0,0,0,no
4,1,0,0,0,0,1,1,1,0,1,1,1,no
3,0,0,0,0,0,0,0,0,0,0,0,0,no
5,5,1,1,0,0,2,1,5,0,3,2.5,0,no
3,1,0,0,0,0,1,1,3,0,3,3,0,no
3,0,0,0,0,0,1,1,3,0,3,3,0,no
3,0,0,0,0,0,2,2,4,1,3,2.5,0,no
3,0,0,0,0,0,1,1,3,0,3,3,0,no
0,0,0,0,1,0,1,1,0,0,0,0,0,no
8,1,1,1,1,3,1,1,8,0,8,8,0,no
39,3,4,1,0,7,3,2,40,1,34,13.666667,1,no
9,1,1,1,0,2,1,1,9,0,9,9,0,no
6,0,1,1,0,0,2,2,7,1,6,4,1,no
12,1,2,2,0,3,1,1,12,0,12,12,0,no
5,0,1,1,0,0,1,1,5,0,5,5,0,no
21,1,3,2,0,4,1,1,21,0,21,21,0,no
4,0,0,0,0,1,3,2,6,2,5,2.666667,1,no
14,0,0,0,0,0,5,4,15,1,9,3.2,0,no
36,1,5,4,0,9,1,1,36,0,36,36,0,no
17,1,2,1,0,3,1,1,17,0,17,17,0,no
16,1,2,1,0,3,1,1,16,0,16,16,0,no
4,2,0,0,0,0,1,1,4,0,4,4,0,no
13,2,0,0,0,0,1,1,13,0,13,13,0,no
3,2,0,0,0,0,2,2,4,1,4,2.5,1,no
14,2,1,1,0,1,1,1,14,0,14,14,0,no
9,1,0,0,1,0,2,2,10,1,9,5.5,0,no
3,1,0,0,0,0,1,1,3,0,3,3,0,no
3,3,0,0,0,0,1,1,3,0,3,3,0,no
7,3,1,1,0,0,1,1,7,0,7,7,0,no
5,0,0,0,0,0,1,1,5,0,5,5,0,no
3,0,0,0,0,0,1,1,3,0,3,3,0,no
3,0,0,0,0,0,1,1,3,0,3,3,0,no
3,0,0,0,0,0,1,1,3,0,3,3,0,no
36,1,5,3,2,6,1,1,36,0,36,36,0,no
5,0,0,0,0,0,1,1,5,0,5,5,0,no
3,0,0,0,0,0,1,1,3,0,3,3,0,no
3,0,0,0,0,0,1,1,3,0,3,3,0,no
3,0,0,0,0,0,1,1,3,0,3,3,0,no
7,1,1,0,2,4,1,1,7,0,7,7,0,no
0,0,0,0,1,0,1,1,0,0,0,0,0,no
0,1,0,0,1,0,1,1,0,0,0,0,0,no
4,0,0,0,0,0,1,1,4,0,4,4,0,no
15,1,2,1,0,2,1,1,15,0,15,15,0,no
3,0,0,0,0,0,1,1,3,0,3,3,0,no
4,1,0,0,0,0,1,1,4,0,4,4,0,no
4,0,0,0,0,0,1,1,4,0,4,4,0,no
3,0,0,0,0,0,1,1,3,0,3,3,0,no
3,0,0,0,0,0,1,1,3,0,3,3,0,no
3,0,0,0,0,0,1,1,3,0,3,3,0,no
25,1,4,1,0,3,1,1,25,0,25,25,0,no
6,0,0,0,0,0,2,2,6,0,4,3,0,no
3,0,0,0,0,0,2,2,4,1,3,2.5,0,no
3,0,0,0,0,0,1,1,3,0,3,3,0,no
3,0,0,0,0,0,2,2,4,1,3,2.5,0,no
33,1,6,2,2,9,2,2,33,0,18,16.5,0,no
5,0,0,0,0,0,1,1,5,0,5,5,0,no
3,0,0,0,0,0,1,1,3,0,3,3,0,no
3,0,0,0,0,0,1,1,3,0,3,3,0,no
3,0,0,0,0,0,1,1,3,0,3,3,0,no
7,1,1,0,2,4,1,1,7,0,7,7,0,no
3,1,0,0,0,0,1,1,3,0,3,3,0,no
0,0,0,0,0,0,1,1,0,0,0,0,0,no
0,0,0,0,0,0,1,1,0,0,0,0,0,no
0,0,0,0,0,0,1,1,0,0,0,0,0,no
5,0,0,0,0,1,1,1,5,0,5,5,0,no
0,1,0,0,0,0,1,1,0,0,0,0,0,no
11,1,1,1,0,2,1,1,11,0,11,11,0,no
4,0,0,0,0,0,1,1,4,0,4,4,0,no
3,0,0,0,0,0,1,1,3,0,3,3,0,no
3,0,0,0,0,0,1,1,3,0,3,3,0,no
3,0,0,0,0,0,1,1,3,0,3,3,0,no
28,1,4,2,0,6,1,1,28,0,28,28,0,no
4,0,0,0,0,0,1,1,4,0,4,4,0,no
3,0,0,0,0,0,1,1,3,0,3,3,0,no
3,0,0,0,0,0,1,1,3,0,3,3,0,no
3,0,0,0,0,0,1,1,3,0,3,3,0,no
28,1,4,2,0,6,1,1,28,0,28,28,0,no
3,0,0,0,0,0,1,1,3,0,3,3,0,no
19,2,3,2,0,4,1,1,19,0,19,19,0,no
3,0,0,0,0,0,1,1,3,0,3,3,0,no
3,0,0,0,0,0,1,1,3,0,3,3,0,no
3,0,0,0,0,0,1,1,3,0,3,3,0,no
15,1,2,2,0,3,1,1,15,0,15,15,0,no
6,2,0,0,0,0,0,0,0,0,0,0,0,no
14,1,2,1,0,0,1,1,1,1,2,2,0,no
8,1,0,0,0,1,1,1,8,0,8,8,0,no
3,0,0,0,0,0,1,1,3,0,3,3,1,no
3,0,0,0,0,0,0,0,0,0,0,0,0,no
54,2,12,6,0,7,1,1,2,0,2,2,1,no
3,0,0,0,0,0,0,0,0,0,0,0,0,no
24,1,4,2,0,2,0,0,0,0,0,0,0,no
0,2,0,0,1,0,1,1,0,0,0,0,0,no
0,0,0,0,1,0,1,1,0,0,0,0,0,no
6,1,1,1,0,0,1,1,6,0,6,6,0,no
3,1,0,0,0,0,1,1,3,0,3,3,0,no
6,1,1,1,0,0,1,1,6,0,6,6,0,no
3,1,0,0,0,0,1,1,3,0,3,3,0,no
2,0,0,0,0,0,1,1,2,0,2,2,1,no
7,2,1,1,0,1,1,1,7,0,7,7,1,no
14,1,1,1,0,4,2,2,15,1,14,8,1,no
4,1,0,0,0,1,4,2,6,2,3,2,1,no
28,1,5,3,1,4,1,1,28,0,28,28,0,no
9,1,0,1,0,2,4,3,11,2,5,3.25,1,no
13,2,0,1,0,5,3,2,14,1,8,5,1,no
3,1,0,0,0,0,1,1,3,0,3,3,0,no
16,0,2,1,0,2,2,1,16,0,11,8,1,no
5,0,0,0,0,1,1,1,5,0,5,5,0,no
14,1,3,3,2,1,2,1,14,0,9,7,1,no
14,1,1,2,0,3,3,3,16,2,14,6,1,no
19,2,3,3,0,4,4,3,21,2,18,5.75,1,no
3,2,0,0,0,0,3,2,17,14,16,10.333333,1,no
18,3,3,2,0,2,1,1,18,0,18,18,0,no
3,2,0,0,0,0,5,1,6,16,13,4.4,1,no
18,3,3,3,0,3,1,1,18,0,18,18,0,no
3,0,0,0,0,0,1,1,3,0,3,3,0,no
30,0,6,3,1,4,4,2,32,2,25,8.5,1,yes
9,1,2,2,0,2,1,1,1,1,2,2,0,no
4,0,0,0,0,0,1,1,0,1,1,1,0,no
5,0,1,1,0,0,1,1,5,0,5,5,0,no
16,0,2,1,0,3,1,1,16,0,16,16,0,no
17,1,2,1,1,4,2,1,1,3,2,2,1,no
3,0,0,0,0,0,1,1,3,0,3,3,0,no
26,1,4,2,2,6,2,1,5,1,4,3,1,no
3,0,0,0,0,0,1,1,3,0,3,3,0,no
19,0,1,1,0,0,1,1,19,0,19,19,0,no
4,0,0,0,0,0,2,1,4,0,3,2,0,no
9,1,2,2,0,2,2,1,10,1,9,5.5,0,no
3,1,0,0,0,0,1,1,3,0,3,3,0,no
43,3,7,1,2,11,3,2,6,2,4,2.666667,1,yes
22,1,4,2,3,3,3,2,24,2,22,8.666667,1,no
21,1,4,2,1,2,2,1,21,0,19,10.5,0,no
3,0,0,0,0,0,1,1,3,0,3,3,0,no
47,2,8,2,2,10,2,1,47,0,46,23.5,0,no
14,2,1,2,2,2,2,2,2,2,2,2,1,no
18,0,4,3,1,3,6,3,17,4,5,3.5,1,no
3,1,0,0,0,0,1,1,3,0,3,3,1,no
2,0,0,0,0,0,1,1,2,0,2,2,0,no
2,1,0,0,0,0,1,1,2,0,2,2,0,no
5,1,1,1,0,0,1,1,5,0,5,5,0,no
2,0,0,0,0,0,1,1,2,0,2,2,0,no
0,0,0,0,1,0,1,1,0,0,0,0,0,no
0,1,0,0,1,0,1,1,0,0,0,0,0,no
0,3,0,0,1,0,1,1,0,0,0,0,0,no
5,2,0,0,0,0,2,1,5,0,4,2.5,1,no
31,1,7,3,1,1,4,1,32,1,26,8.25,1,no
9,1,2,1,1,1,1,1,9,0,9,9,0,no
7,1,1,1,0,0,1,1,7,0,7,7,1,no
3,0,0,0,0,0,1,1,3,0,3,3,1,no
7,0,1,1,0,0,1,1,7,0,7,7,1,no
3,0,0,0,0,0,1,1,3,0,3,3,0,no
4,0,0,0,0,0,1,1,4,0,4,4,1,no
3,0,0,0,0,0,1,1,3,0,3,3,0,no
3,0,0,0,0,0,1,1,3,0,3,3,1,no
4,0,0,0,0,0,1,1,4,0,4,4,1,no
43,2,9,4,2,4,2,1,43,0,41,21.5,0,no
3,2,0,0,0,0,1,1,0,8,8,8,1,no
16,2,3,2,0,2,3,1,16,0,12,5.333333,1,no
34,0,7,3,0,3,5,1,35,1,29,7.2,1,no
10,0,2,2,0,0,2,2,2,2,2,2,1,no
11,0,1,1,0,0,1,1,11,0,11,11,1,no
8,0,1,1,0,1,1,1,1,0,1,1,1,no
3,0,0,0,0,0,0,0,0,0,0,0,0,no
22,2,3,3,0,3,2,1,3,0,2,1.5,1,no
11,0,0,0,0,1,2,1,11,0,10,5.5,1,no
22,1,4,1,2,3,4,3,32,10,30,10.5,1,no
31,1,8,6,0,5,4,3,32,1,23,8.25,1,no
8,1,1,1,0,2,1,1,8,0,8,8,1,no
20,2,5,3,1,3,2,2,20,0,18,10,1,no
47,1,7,3,4,8,2,1,48,1,47,24.5,0,no
22,1,4,2,1,2,1,1,22,0,22,22,1,no
4,1,0,0,0,1,1,1,4,0,4,4,0,no
34,1,5,4,0,5,3,2,35,1,30,12,1,no
58,1,9,4,0,10,5,3,59,1,48,12,1,no
9,2,2,1,3,0,1,1,9,0,9,9,1,no
20,2,5,4,0,3,1,1,20,0,20,20,1,no
3,2,0,0,0,0,2,2,6,3,6,4.5,1,no
5,1,1,1,0,0,1,1,5,0,5,5,1,no
0,1,0,0,1,0,1,1,0,0,0,0,0,no
0,1,0,0,2,0,1,1,0,0,0,0,0,no
52,6,10,2,2,0,1,1,52,0,52,52,1,no
24,1,4,1,3,2,2,1,24,0,19,12,1,no
30,1,5,2,1,5,3,3,33,3,32,12,1,yes
14,0,4,3,1,3,4,2,17,3,14,5,0,no
3,0,0,0,0,0,4,2,14,11,12,6.25,0,no
7,2,0,0,0,2,3,3,12,5,11,5.666667,1,no
24,1,5,2,1,4,7,3,28,4,11,4.571429,1,no
5,1,1,1,0,0,1,1,5,0,5,5,0,no
29,0,4,2,0,1,6,3,38,9,35,7.833333,1,no
8,0,1,1,0,0,2,2,8,0,7,4,0,no
11,2,2,2,0,2,1,1,11,0,11,11,0,no
10,1,2,2,0,0,1,1,10,0,10,10,0,no
3,1,0,0,0,0,1,1,3,0,3,3,0,no
3,1,0,0,0,0,2,1,4,1,3,2.5,1,no
10,0,2,1,0,0,1,1,10,0,10,10,1,no
30,3,4,2,0,0,2,1,30,0,27,15,1,no
10,2,1,1,0,0,1,1,10,0,10,10,1,no
5,1,0,0,0,0,1,1,5,0,5,5,1,no
10,2,1,1,0,1,1,1,10,0,10,10,1,no
3,1,0,0,0,0,1,1,3,0,3,3,1,no
6,0,1,1,0,0,1,1,6,0,6,6,1,no
3,0,0,0,0,0,1,1,3,0,3,3,1,no
7,1,1,1,0,1,1,1,7,0,7,7,1,no
5,0,0,0,0,1,1,1,5,0,5,5,1,no
3,1,0,0,0,0,1,1,3,0,3,3,1,no
3,1,0,0,0,0,1,1,3,0,3,3,1,no
3,3,0,0,0,0,1,1,3,0,3,3,0,no
0,3,0,0,1,0,1,1,0,0,0,0,1,no
0,2,0,0,0,0,1,1,0,0,0,0,0,no
0,1,0,0,0,0,1,1,0,0,0,0,0,no
3,1,0,0,0,0,1,1,3,0,3,3,0,no
12,2,1,1,0,1,2,1,13,1,12,7,0,no
11,1,1,1,0,1,2,1,12,1,11,6.5,0,no
7,5,0,0,0,0,1,1,7,0,7,7,0,no
7,1,0,0,0,2,2,1,9,2,9,5.5,0,no
9,1,1,1,0,1,1,1,9,0,9,9,0,no
7,0,1,1,0,0,3,2,24,17,24,13.666667,1,no
26,1,6,2,0,1,1,1,26,0,26,26,0,no
11,2,2,1,0,1,2,2,12,1,11,6.5,1,no
3,0,0,0,0,0,1,1,3,0,3,3,0,no
3,1,0,0,0,0,1,1,3,0,3,3,1,no
3,1,0,0,0,0,1,1,3,0,3,3,0,no
3,0,0,0,0,0,1,1,3,0,3,3,0,no
3,3,0,0,0,0,1,1,3,0,3,3,0,no
5,4,0,0,0,1,1,1,5,0,5,5,0,no
3,1,0,0,0,0,1,1,3,0,3,3,0,no
3,1,0,0,0,0,1,1,3,0,3,3,1,no
3,2,0,0,0,0,1,1,3,0,3,3,0,no
10,0,1,1,0,0,3,2,10,0,5,3.333333,1,no
3,0,0,0,0,0,1,1,3,0,3,3,0,no
5,1,1,1,0,0,1,1,5,0,5,5,0,no
3,0,0,0,0,0,1,1,3,0,3,3,0,no
5,1,1,1,0,0,1,1,5,0,5,5,0,no
11,2,0,0,1,0,3,2,12,1,10,4.333333,0,no
24,2,6,5,1,7,1,1,24,0,24,24,0,no
11,2,2,2,0,2,1,1,11,0,11,11,0,no
3,0,0,0,0,0,1,1,3,0,3,3,0,no
3,0,0,0,0,0,1,1,3,0,3,3,0,no
21,2,4,3,0,6,1,1,21,0,21,21,0,no
6,3,0,0,0,2,1,1,6,0,6,6,0,no
3,0,0,0,0,0,1,1,3,0,3,3,0,no
26,1,5,2,1,4,5,2,30,4,27,6.8,0,no
66,0,12,6,0,9,9,3,69,3,58,8,1,no
38,3,6,3,0,6,1,1,38,0,38,38,0,no
13,0,2,2,0,0,2,1,13,0,12,6.5,0,no
6,1,1,1,0,0,2,2,7,1,6,4,0,no
0,1,0,0,1,0,1,1,0,0,0,0,0,no
3,1,0,0,0,0,1,1,3,0,3,3,0,no
7,1,1,1,1,0,3,2,9,2,7,3.666667,0,no
0,3,0,0,1,0,1,1,0,0,0,0,0,no
3,2,0,0,0,0,2,2,4,1,4,2.5,0,no
3,0,0,0,0,0,1,1,3,0,3,3,0,no
3,0,0,0,0,0,2,2,4,1,3,2.5,0,no
26,0,4,4,1,7,4,2,30,4,23,8.5,0,no
22,1,2,2,3,6,1,1,22,0,22,22,0,no
3,2,0,0,0,0,1,1,3,0,3,3,0,no
3,1,0,0,0,0,1,1,3,0,3,3,0,no
8,1,2,2,0,0,1,1,8,0,8,8,0,no
6,1,1,1,0,0,1,1,6,0,6,6,0,no
3,0,0,0,0,0,1,1,3,0,3,3,0,no
7,5,0,0,0,0,1,1,7,0,7,7,0,no
3,2,0,0,0,0,2,2,4,1,3,2.5,0,no
3,3,0,0,0,0,1,1,3,0,3,3,0,no
3,3,0,0,0,0,3,2,56,53,53,36.333333,0,no
60,4,8,4,0,6,1,1,60,0,60,60,0,no
3,0,0,0,0,0,1,1,3,0,3,3,0,no
11,1,2,2,0,1,1,1,11,0,11,11,0,no
6,0,1,1,0,0,1,1,6,0,6,6,0,no
3,0,0,0,0,0,1,1,3,0,3,3,0,no
7,0,1,1,0,0,1,1,7,0,7,7,0,no
3,1,0,0,0,0,1,1,3,0,3,3,0,no
0,1,0,0,0,0,3,1,2,25,23,9,1,no
0,1,0,0,0,0,4,1,2,97,66,24.75,1,no
0,2,0,0,0,0,3,1,2,21,19,7.666667,1,no
0,0,0,0,0,0,1,1,0,0,0,0,0,no
0,1,0,0,0,0,2,1,1,21,20,11,0,no
0,1,0,0,0,0,1,1,0,0,0,0,1,no
0,1,0,0,0,0,1,1,0,0,0,0,0,no
0,3,0,0,0,0,2,1,1,18,17,9.5,0,no
0,1,0,0,0,0,1,1,0,0,0,0,0,no
0,1,0,0,0,0,1,1,0,0,0,0,1,no
0,2,0,0,0,0,1,1,0,0,0,0,0,no
16,3,1,1,2,0,1,1,16,0,16,16,0,no
11,0,2,2,0,2,2,1,11,0,8,5.5,1,no
35,1,3,2,0,2,6,3,38,3,23,6.833333,1,no
9,0,1,1,0,1,3,1,10,1,7,3.666667,1,no
10,1,2,2,0,3,2,1,11,1,10,6,0,no
46,1,11,4,0,5,5,2,48,2,29,10,1,no
12,1,2,2,1,1,5,2,84,72,73,31.2,1,no
68,2,12,4,2,15,1,1,68,0,68,68,0,no
32,0,11,9,2,6,3,2,33,1,19,11.333333,0,no
3,0,0,0,0,0,1,1,3,0,3,3,0,no
15,2,2,2,0,3,2,2,19,4,19,11.5,1,no
24,2,4,3,0,2,7,2,33,9,30,6,1,no
7,3,1,1,1,1,1,1,7,0,7,7,0,no
40,0,0,0,0,0,2,1,41,1,40,21,0,no
51,1,11,5,0,10,1,1,51,0,51,51,0,no
3,1,0,0,0,0,1,1,3,0,3,3,1,no
17,0,0,0,0,0,1,1,17,0,17,17,0,no
12,3,2,1,0,1,2,2,13,1,13,7,1,no
12,1,0,0,0,3,2,1,13,1,12,7,0,no
5,2,0,0,0,2,1,1,5,0,5,5,1,no
3,0,0,0,0,0,1,1,3,0,3,3,0,no
3,0,0,0,0,0,1,1,3,0,3,3,0,no
3,0,0,0,0,0,1,1,3,0,3,3,0,no
60,2,11,3,1,6,3,2,60,0,52,20,1,no
16,2,1,1,0,1,1,1,16,0,16,16,1,no
11,1,1,2,0,1,2,2,14,3,14,8.5,1,no
12,1,2,2,0,2,1,1,12,0,12,12,0,no
4,2,0,0,0,1,2,1,5,1,4,3,1,no
10,3,1,1,0,3,3,3,17,7,17,8,1,no
8,2,1,1,1,1,1,1,8,0,8,8,0,no
18,1,2,2,0,3,2,1,20,2,20,11,1,no
11,1,1,2,0,1,2,2,14,3,14,8.5,1,no
10,2,1,2,0,1,2,1,10,0,7,5,1,no
19,1,3,2,0,2,1,1,19,0,19,19,0,no
26,5,7,2,0,4,3,2,28,2,26,10,0,no
3,2,0,0,0,0,1,1,3,0,3,3,0,no
3,0,0,0,0,0,2,2,6,0,3,3,1,no
3,0,0,0,0,0,2,2,6,0,3,3,1,no
3,0,0,0,0,0,2,2,6,0,3,3,1,no
3,0,0,0,0,0,2,2,6,0,3,3,1,no
3,0,0,0,0,0,2,2,6,0,3,3,1,no
3,0,0,0,0,0,2,2,6,0,3,3,1,no
3,0,0,0,0,0,2,2,6,0,3,3,1,no
3,0,0,0,0,0,2,2,6,0,3,3,1,no
3,0,0,0,0,0,2,2,6,0,3,3,1,no
2,0,0,0,0,0,1,1,2,0,2,2,1,no
2,1,0,0,0,0,1,1,2,0,2,2,1,no
3,1,0,0,0,0,1,1,3,0,3,3,1,no
2,0,0,0,0,0,1,1,2,0,2,2,1,no
0,0,0,0,1,0,1,1,0,0,0,0,0,no
0,0,0,0,1,0,1,1,0,0,0,0,0,no
0,0,0,0,1,0,1,1,0,0,0,0,0,no
0,0,0,0,1,0,1,1,0,0,0,0,0,no
0,0,0,0,1,0,1,1,0,0,0,0,0,no
0,0,0,0,1,0,1,1,0,0,0,0,0,no
0,0,0,0,1,0,1,1,0,0,0,0,0,no
0,1,0,0,0,0,1,1,0,11,11,11,0,no
0,1,0,0,0,0,2,1,16,16,16,16,1,no
5,3,0,0,0,1,1,1,5,0,5,5,0,no
6,2,1,1,0,0,1,1,6,0,6,6,0,no
0,0,0,0,0,0,2,1,3,3,3,3,0,no
0,0,0,0,0,0,2,1,3,3,3,3,0,no
0,1,0,0,0,0,5,1,6,45,32,10.2,1,no
0,0,0,0,0,0,2,1,3,3,3,3,0,no
5,3,0,0,0,0,1,1,5,0,5,5,0,no
8,1,1,1,0,1,2,1,11,3,11,7,0,no
5,1,1,1,0,0,1,1,5,0,5,5,0,no
3,0,0,0,0,0,1,1,3,0,3,3,0,no
3,0,0,0,0,0,2,1,4,1,3,2.5,1,no
3,1,0,0,0,0,2,1,11,8,11,9.5,0,no
3,0,0,0,0,0,2,1,4,1,3,2.5,1,no
3,2,0,0,0,0,1,1,3,0,3,3,0,no
4,1,0,0,0,0,1,1,4,0,4,4,0,no
4,1,0,0,0,0,1,1,4,0,4,4,0,no
4,0,0,0,0,0,1,1,4,0,4,4,0,no
8,1,0,0,0,0,1,1,8,0,8,8,0,no
5,1,1,1,0,0,1,1,5,0,5,5,0,no
14,1,2,2,1,3,1,1,14,0,14,14,0,no
3,0,0,0,0,0,1,1,3,0,3,3,0,no
9,0,1,1,0,2,1,1,9,0,9,9,0,no
3,0,0,0,0,0,1,1,3,0,3,3,0,no
3,1,0,0,0,0,1,1,3,0,3,3,0,no
3,0,0,0,0,0,2,1,4,1,4,2.5,1,no
14,1,2,2,0,4,1,1,14,0,14,14,1,no
8,0,1,1,0,0,2,2,8,0,7,4,0,no
4,0,0,0,0,0,1,1,4,0,4,4,0,no
0,0,0,0,0,0,1,1,0,0,0,0,0,no
0,1,0,0,0,0,1,1,0,0,0,0,0,no
0,1,0,0,0,0,1,1,0,0,0,0,0,no
0,0,0,0,0,0,1,1,0,0,0,0,0,no
4,1,0,0,0,0,2,2,4,0,3,2,0,no
10,1,2,2,0,1,1,1,10,0,10,10,0,no
39,0,10,5,0,5,3,3,39,0,37,13,0,no
3,1,0,0,0,0,1,1,3,0,3,3,0,no
5,2,0,0,0,0,1,1,5,0,5,5,0,no
5,0,1,1,0,0,0,0,0,0,0,0,0,no
8,1,1,1,0,1,1,1,4,0,4,4,0,no
3,0,0,0,0,0,0,0,0,0,0,0,0,no
8,0,2,2,0,1,1,1,1,1,2,2,0,no
3,0,0,0,0,0,0,0,0,0,0,0,0,no
4,1,0,0,0,0,0,0,0,0,0,0,0,no
5,0,0,0,0,0,0,0,0,0,0,0,0,no
3,0,0,0,0,0,0,0,0,0,0,0,0,no
3,0,0,0,0,0,0,0,0,0,0,0,0,no
3,0,0,0,0,0,0,0,0,0,0,0,0,no
3,0,0,0,0,0,0,0,0,0,0,0,0,no
3,0,0,0,0,0,0,0,0,0,0,0,0,no
3,0,0,0,0,0,0,0,0,0,0,0,0,no
10,1,2,2,0,0,0,0,0,0,0,0,0,no
6,0,1,1,0,0,0,0,0,0,0,0,0,no
3,1,0,0,1,0,0,0,0,0,0,0,0,no
6,1,1,1,0,0,1,1,1,1,2,2,0,no
3,1,0,0,0,0,0,0,0,0,0,0,0,no
6,2,0,0,0,0,0,0,0,0,0,0,0,no
9,0,1,0,0,1,0,0,0,0,0,0,0,no
3,0,0,0,0,0,0,0,0,0,0,0,0,no
3,0,0,0,0,0,0,0,0,0,0,0,0,no
6,0,0,0,0,0,0,0,0,0,0,0,0,no
0,1,0,0,0,0,1,1,0,0,0,0,0,no
0,1,0,0,0,0,1,1,0,0,0,0,0,no
0,0,0,0,0,0,1,1,0,0,0,0,0,no
0,2,0,0,0,0,1,1,0,0,0,0,0,no
0,0,0,0,0,0,1,1,0,0,0,0,0,no
0,1,0,0,0,0,1,1,0,0,0,0,1,no
0,1,0,0,0,0,1,1,0,0,0,0,0,no
0,1,0,0,0,0,1,1,0,0,0,0,0,no
0,1,0,0,0,0,1,1,0,0,0,0,1,no
0,2,0,0,0,0,1,1,0,0,0,0,0,no
0,0,0,0,0,0,1,1,0,0,0,0,0,no
0,0,0,0,0,0,1,1,0,0,0,0,0,no
3,0,0,0,0,0,1,1,3,0,3,3,0,no
3,1,0,0,0,0,1,1,3,0,3,3,0,no
3,2,0,0,0,0,1,1,3,0,3,3,0,no
7,1,3,1,3,1,1,1,7,0,7,7,0,no
3,0,0,0,0,0,1,1,3,0,3,3,0,no
3,0,0,0,0,0,1,1,3,0,3,3,0,no
4,1,0,0,0,0,1,1,4,0,4,4,0,no
4,2,0,0,0,0,1,1,4,0,4,4,0,no
5,0,0,0,0,1,1,1,5,0,5,5,0,no
4,1,0,0,0,0,1,1,4,0,4,4,0,no
2,1,0,0,0,0,0,0,0,0,0,0,0,no
2,0,0,0,0,0,0,0,0,0,0,0,0,no
3,3,0,0,0,0,0,0,0,0,0,0,0,no
3,3,0,0,0,0,0,0,0,0,0,0,0,no
3,0,0,0,0,0,0,0,0,0,0,0,0,no
3,1,0,0,0,0,0,0,0,0,0,0,0,no
3,1,0,0,0,0,0,0,0,0,0,0,0,no
3,2,0,0,0,0,0,0,0,0,0,0,0,no
3,3,0,0,0,0,0,0,0,0,0,0,0,no
3,0,0,0,0,0,0,0,0,0,0,0,0,no
3,3,0,0,0,0,0,0,0,0,0,0,0,no
3,3,0,0,0,0,0,0,0,0,0,0,0,no
3,1,0,0,0,0,0,0,0,0,0,0,0,no
3,3,0,0,0,0,0,0,0,0,0,0,0,no
3,1,0,0,0,0,0,0,0,0,0,0,0,no
3,2,0,0,0,0,0,0,0,0,0,0,0,no
3,3,0,0,0,0,0,0,0,0,0,0,0,no
3,1,0,0,0,0,2,1,4,1,3,2.5,0,no
3,2,0,0,0,0,1,1,3,0,3,3,0,no
3,0,0,0,0,0,1,1,3,0,3,3,0,no
2,0,0,0,0,0,1,1,2,0,2,2,0,no
3,1,0,0,0,0,1,1,3,0,3,3,0,no
4,2,0,0,0,0,1,1,4,0,4,4,0,no
4,2,0,0,0,0,1,1,4,0,4,4,0,no
34,1,7,4,1,10,2,2,37,3,37,20,0,no
9,4,0,0,0,1,2,2,9,0,8,4.5,0,no
18,1,3,1,0,0,2,2,27,9,27,18,0,no
19,0,3,1,0,1,1,1,19,0,19,19,0,no
6,0,0,0,1,0,1,1,6,0,6,6,0,no
18,0,2,1,1,2,3,2,18,0,10,6,0,no
22,0,3,3,1,0,1,1,22,0,22,22,0,no
5,0,0,0,0,0,1,1,5,0,5,5,0,no
18,0,3,3,1,0,1,1,7,0,7,7,0,no
7,0,1,1,1,0,1,1,7,0,7,7,0,no
0,4,0,0,0,0,0,0,0,0,0,0,0,no
0,3,0,0,0,0,0,0,0,0,0,0,0,no
0,3,0,0,0,0,0,0,0,0,0,0,0,no
0,2,0,0,0,0,0,0,0,0,0,0,0,no
0,3,0,0,0,0,1,1,0,0,0,0,0,no
0,3,0,0,1,0,0,0,0,0,0,0,0,no
0,4,0,0,0,0,0,0,0,0,0,0,0,no
0,3,0,0,0,0,1,1,0,0,0,0,0,no
0,2,0,0,0,0,0,0,0,0,0,0,0,no
17,1,0,0,0,2,11,3,28,11,12,3.545455,1,no
4,2,0,0,0,0,2,2,5,1,4,3,0,no
21,3,2,1,0,1,10,3,23,2,11,2.5,1,no
3,1,0,0,0,0,1,1,0,9,9,9,0,no
3,6,0,0,0,0,3,3,8,8,7,5.333333,1,no
6,7,1,1,1,0,1,1,6,0,6,6,0,yes
3,3,0,0,1,0,2,2,7,7,7,7,1,yes
11,3,1,1,0,0,1,1,11,0,11,11,0,no
3,5,0,0,1,0,4,3,9,9,7,4.5,1,yes
3,5,0,0,1,0,4,3,11,8,7,4.75,1,yes
23,0,5,1,0,0,6,2,25,2,12,4.5,1,yes
3,2,0,0,0,0,0,0,0,0,0,0,0,no
3,4,0,0,0,0,2,1,1,9,8,5,0,no
14,5,2,2,1,1,2,1,14,0,11,7,0,no
10,1,1,1,1,1,4,1,5,5,3,2.5,1,no
3,0,0,0,0,0,0,0,0,0,0,0,0,no
3,0,0,0,0,0,1,1,3,0,3,3,0,no
3,0,0,0,0,0,1,1,3,0,3,3,1,no
3,0,0,0,0,0,0,0,0,0,0,0,0,no
8,1,1,1,0,1,1,1,8,0,8,8,0,no
21,1,1,1,0,5,1,1,21,0,21,21,0,no
9,3,1,1,1,1,1,1,1,1,2,2,0,no
9,3,1,1,1,1,2,1,10,1,9,5.5,0,no
7,2,1,1,0,0,1,1,7,0,7,7,0,no
5,3,0,0,0,0,1,1,5,0,5,5,0,no
6,3,0,0,0,1,1,1,6,0,6,6,0,no
5,2,0,0,0,1,1,1,5,0,5,5,0,no
7,3,0,0,0,1,2,2,8,1,7,4.5,0,no
0,0,0,0,1,0,1,1,0,0,0,0,1,no
0,1,0,0,1,0,1,1,0,0,0,0,1,no
6,1,0,0,0,0,1,1,6,0,6,6,0,no
7,1,0,0,0,1,7,2,21,14,13,5,1,no
3,1,0,0,0,0,2,1,11,8,11,9.5,0,no
3,3,0,0,0,0,1,1,3,0,3,3,0,no
3,3,0,0,0,0,1,1,3,0,3,3,0,no
13,4,1,1,2,0,3,2,15,2,13,5.666667,1,no
3,4,0,0,0,0,1,1,3,0,3,3,0,no
4,0,0,0,0,0,1,1,4,0,4,4,0,no
54,3,10,4,0,7,5,4,57,3,53,12,1,no
19,5,0,0,1,2,2,1,26,7,26,16.5,1,no
3,0,0,0,0,0,2,2,4,1,4,2.5,0,no
31,4,5,3,2,3,5,3,34,3,28,7.4,1,no
9,2,1,1,1,1,1,1,9,0,9,9,1,no
3,0,0,0,0,0,1,1,3,0,3,3,0,no
41,0,6,4,1,2,1,1,41,0,41,41,0,no
3,1,0,0,0,0,1,1,3,0,3,3,0,no
10,1,1,1,0,1,1,1,10,0,10,10,0,no
10,1,1,1,0,1,1,1,10,0,10,10,0,no
23,2,2,1,2,2,2,2,23,0,19,11.5,1,no
87,4,17,5,5,16,6,2,92,5,53,16.166667,1,no
11,3,1,1,0,3,3,1,12,1,9,4.333333,0,no
20,4,4,2,2,2,5,2,26,6,21,6.4,1,no
8,3,1,1,2,0,1,1,8,0,8,8,0,no
36,0,6,4,1,1,1,1,36,0,36,36,0,no
14,0,4,4,0,0,1,1,14,0,14,14,0,no
11,0,2,2,1,0,1,1,11,0,11,11,0,no
3,0,0,0,0,0,1,1,3,0,3,3,0,no
81,3,17,5,5,16,3,2,82,1,70,27.666667,0,no
8,3,1,1,1,0,1,1,8,0,8,8,0,no
3,2,0,0,0,0,1,1,3,0,3,3,1,no
9,2,0,0,2,1,2,2,9,0,8,4.5,1,no
3,1,0,0,0,0,1,1,3,0,3,3,1,no
3,3,0,0,0,0,1,1,3,0,3,3,1,yes
3,1,0,0,0,0,1,1,3,0,3,3,0,no
4,3,0,0,0,0,2,1,8,4,8,6,0,no
4,0,0,0,0,0,2,2,4,0,3,2,1,no
7,4,0,0,0,0,1,1,7,0,7,7,0,no
14,1,2,2,2,3,1,1,14,0,14,14,0,no
14,0,2,1,2,1,3,2,14,0,6,4.666667,0,no
3,0,0,0,0,0,1,1,3,0,3,3,0,no
3,2,0,0,1,0,1,1,3,0,3,3,0,no
18,1,3,2,2,0,1,1,18,0,18,18,0,no
3,1,0,0,0,0,0,0,0,0,0,0,0,no
16,4,2,1,0,3,6,3,8,12,8,3.333333,1,yes
3,0,0,0,0,0,0,0,0,0,0,0,0,no
3,1,0,0,0,0,1,1,1,1,2,2,1,no
19,0,2,1,0,2,1,1,1,0,1,1,0,no
4,2,0,0,0,1,1,1,4,0,4,4,0,no
9,4,1,1,0,0,0,0,0,0,0,0,0,no
3,0,0,0,0,0,0,0,0,0,0,0,0,no
5,1,1,1,0,0,1,1,5,0,5,5,0,no
10,2,2,2,1,0,2,2,11,1,10,6,0,no
3,0,0,0,1,0,1,1,3,0,3,3,0,no
3,1,0,0,0,0,1,1,3,0,3,3,0,no
8,4,1,1,1,1,1,1,8,0,8,8,0,no
3,0,0,0,0,0,1,1,3,0,3,3,0,no
3,1,0,0,0,0,1,1,3,0,3,3,0,no
18,0,2,1,0,2,1,1,18,0,18,18,0,no
9,4,1,1,0,0,1,1,9,0,9,9,0,no
0,0,0,0,0,0,1,1,0,0,0,0,0,no
3,1,0,0,0,0,0,0,0,0,0,0,0,no
3,0,0,0,0,0,0,0,0,0,0,0,0,no
7,0,0,0,0,2,1,1,1,1,2,2,0,no
3,3,0,0,0,0,1,1,1,1,2,2,0,no
3,0,0,0,0,0,1,1,3,0,3,3,0,no
3,1,0,0,0,0,1,1,3,0,3,3,0,no
22,3,4,2,0,3,1,1,22,0,22,22,0,no
8,2,0,0,0,1,1,1,8,0,8,8,0,no
4,2,0,0,0,1,1,1,4,0,4,4,0,no
2,0,0,0,0,0,1,1,2,0,2,2,0,no
4,1,0,0,0,0,0,0,0,0,0,0,0,no
17,6,0,0,0,3,1,1,17,0,17,17,0,no
0,0,0,0,0,0,0,0,0,0,0,0,0,no
0,0,0,0,0,0,0,0,0,0,0,0,0,no
10,3,3,1,0,0,0,0,0,0,0,0,0,no
3,1,0,0,0,0,0,0,0,0,0,0,0,no
0,3,0,0,0,0,0,0,0,0,0,0,0,no
3,1,0,0,0,0,1,1,1,1,2,2,1,no
3,2,0,0,0,0,0,0,0,0,0,0,0,no
28,3,5,2,3,6,1,1,4,0,4,4,0,no
5,2,0,0,0,0,0,0,0,0,0,0,0,no
8,1,0,0,0,2,2,1,2,2,2,2,1,no
4,2,0,0,0,0,1,1,4,0,4,4,0,no
0,0,0,0,1,0,1,1,0,0,0,0,0,no
0,0,0,0,1,0,1,1,0,0,0,0,1,no
0,1,0,0,1,0,1,1,0,0,0,0,0,no
0,2,0,0,1,0,1,1,0,0,0,0,0,no
0,1,0,0,1,0,1,1,0,0,0,0,0,no
0,1,0,0,1,0,1,1,0,0,0,0,0,no
0,1,0,0,1,0,1,1,0,0,0,0,1,no
0,1,0,0,1,0,1,1,0,0,0,0,0,no
0,3,0,0,2,0,1,1,0,0,0,0,0,no
0,2,0,0,1,0,1,1,0,0,0,0,0,no
0,2,0,0,1,0,1,1,0,0,0,0,0,no
0,0,0,0,1,0,1,1,0,0,0,0,0,no
3,1,0,0,0,0,1,1,3,0,3,3,0,no
16,2,3,2,1,2,1,1,16,0,16,16,0,no
43,2,9,3,0,12,5,2,47,4,44,10.2,0,no
19,2,3,2,0,4,1,1,19,0,19,19,0,no
6,2,1,1,0,0,1,1,6,0,6,6,0,no
4,2,0,0,0,0,1,1,4,0,4,4,0,no
8,5,2,1,0,0,1,1,8,0,8,8,0,no
5,2,0,0,0,0,1,1,5,0,5,5,0,no
8,2,2,1,0,0,1,1,8,0,8,8,0,yes
5,3,0,0,0,0,1,1,5,0,5,5,0,no
9,5,3,2,0,0,1,1,9,0,9,9,0,no
8,8,0,0,0,0,1,1,8,0,8,8,0,no
12,0,1,1,0,1,6,1,14,5,9,3.166667,1,no
18,2,3,1,2,0,1,1,18,0,18,18,0,no
7,4,0,0,0,0,1,1,1,0,1,1,1,no
3,0,0,0,0,0,3,2,3,3,2,2,1,no
3,2,0,0,0,0,1,1,3,0,3,3,1,no
4,2,0,0,0,0,0,0,0,0,0,0,0,no
10,0,1,1,0,1,1,1,1,1,2,2,0,no
3,0,0,0,0,0,0,0,0,0,0,0,0,no
3,0,0,0,0,0,0,0,0,0,0,0,0,no
3,0,0,0,0,0,0,0,0,0,0,0,0,no
3,0,0,0,0,0,0,0,0,0,0,0,0,no
10,4,0,0,0,1,1,1,10,0,10,10,0,no
3,0,0,0,0,0,1,1,3,0,3,3,0,no
3,0,0,0,0,0,1,1,3,0,3,3,0,no
3,0,0,0,0,0,1,1,3,0,3,3,0,no
3,0,0,0,0,0,1,1,3,0,3,3,0,no
11,0,2,2,0,2,2,1,12,1,11,6.5,0,no
3,0,0,0,0,0,1,1,3,0,3,3,0,no
11,0,2,2,0,2,2,1,12,1,11,6.5,0,no
3,0,0,0,0,0,1,1,3,0,3,3,0,no
3,0,0,0,0,0,1,1,3,0,3,3,0,no
3,0,0,0,0,0,2,1,4,1,3,2.5,0,no
3,1,0,0,0,0,1,1,3,0,3,3,0,no
28,4,3,2,2,3,1,1,28,0,28,28,0,no
5,4,0,0,1,1,1,1,5,0,5,5,0,no
27,4,5,1,1,7,1,1,27,0,27,27,0,no
21,4,3,3,0,0,1,1,21,0,21,21,0,no
26,3,4,1,1,8,1,1,26,0,26,26,0,no
7,5,0,0,0,2,1,1,7,0,7,7,0,no
7,3,1,1,0,0,1,1,7,0,7,7,0,no
23,4,3,2,2,3,1,1,23,0,23,23,0,yes
10,5,2,2,1,0,1,1,10,0,10,10,0,no
7,5,0,0,0,0,1,1,7,0,7,7,0,no
8,3,1,1,1,0,2,1,9,1,8,5,0,yes
7,5,0,0,0,0,1,1,7,0,7,7,0,no
23,2,3,2,4,0,1,1,23,0,23,23,0,no
9,2,1,1,1,0,1,1,9,0,9,9,0,no
16,5,1,1,0,0,6,2,23,7,20,5,1,no
3,1,0,0,0,0,3,2,2,7,5,3,1,no
12,3,1,1,0,2,5,2,14,2,8,3.2,1,no
4,1,0,0,0,0,0,0,0,0,0,0,0,no
3,3,0,0,0,0,1,1,0,26,26,26,0,no
4,5,0,0,1,1,3,2,37,33,33,23.333333,1,no
3,2,0,0,0,0,1,1,1,1,2,2,0,no
71,3,7,3,4,3,8,3,72,1,30,9.125,1,yes
11,4,2,1,0,0,1,1,1,1,2,2,1,no
16,2,1,1,0,1,4,2,17,1,12,4.5,1,no
4,5,0,0,1,1,1,1,4,0,4,4,0,no
9,0,1,1,0,1,2,1,4,1,3,2.5,1,no
30,6,3,1,3,3,5,3,38,8,32,9.2,1,yes
6,1,1,1,0,1,0,0,0,0,0,0,0,yes
3,0,0,0,0,0,0,0,0,0,0,0,0,no
3,0,0,0,0,0,0,0,0,0,0,0,0,no
3,0,0,0,0,0,0,0,0,0,0,0,0,no
3,0,0,0,0,0,0,0,0,0,0,0,0,no
3,0,0,0,0,0,0,0,0,0,0,0,0,no
3,0,0,0,0,0,1,1,1,1,2,2,0,no
3,0,0,0,0,0,0,0,0,0,0,0,0,no
3,0,0,0,0,0,0,0,0,0,0,0,0,no
19,2,2,1,1,2,9,3,34,52,38,9.555556,1,no
8,1,1,1,0,0,3,1,6,1,4,2.333333,1,no
10,2,1,1,0,1,1,1,1,1,2,2,0,no
12,0,2,1,1,1,2,1,13,1,12,7,0,no
36,1,5,2,2,0,6,2,32,3,25,5.833333,1,no
16,2,1,1,1,3,2,1,17,1,16,9,1,no
3,1,0,0,0,0,4,2,20,17,18,9.25,1,no
11,0,2,2,0,1,1,1,1,1,2,2,0,no
5,1,1,1,0,1,1,1,5,0,5,5,1,no
4,1,0,0,0,0,2,2,6,2,6,4,0,no
20,2,3,2,1,0,1,1,20,0,20,20,1,no
8,2,1,1,0,0,1,1,8,0,8,8,1,no
10,2,1,1,0,0,2,2,11,1,10,6,1,no
4,0,0,0,0,1,1,1,4,0,4,4,0,yes
66,0,7,3,4,3,9,3,55,3,30,6.444444,1,yes
3,0,0,0,0,0,1,1,3,0,3,3,1,no
37,2,5,3,3,0,2,1,37,0,35,18.5,1,no
25,2,3,2,2,0,2,1,25,0,23,12.5,1,no
4,1,0,0,0,0,2,1,4,0,3,2,1,no
12,2,2,2,1,0,1,1,12,0,12,12,1,no
5,3,0,0,1,0,1,1,5,0,5,5,1,no
3,0,0,0,0,0,3,2,5,2,3,2.333333,1,no
3,0,0,0,0,0,1,1,3,0,3,3,0,no
3,0,0,0,0,0,1,1,3,0,3,3,0,no
3,0,0,0,1,0,3,2,5,2,3,2.333333,1,no
3,1,0,0,0,0,1,1,3,0,3,3,0,no
3,1,0,0,0,0,1,1,3,0,3,3,0,no
5,3,1,1,1,0,2,1,4,1,3,2.5,1,no
5,2,0,0,0,0,2,1,5,0,4,2.5,1,no
21,1,5,2,0,1,5,2,24,3,15,5.4,1,no
11,2,2,2,2,0,2,2,12,1,11,6.5,1,no
14,1,2,1,0,0,1,1,14,0,14,14,0,no
6,4,0,0,0,1,2,1,6,0,5,3,1,no
8,3,0,0,1,1,1,1,8,0,8,8,0,no
9,4,0,0,1,1,1,1,9,0,9,9,0,no
8,3,0,0,1,1,1,1,8,0,8,8,0,no
4,0,0,0,0,0,2,2,2,1,2,1.5,0,no
19,1,1,1,0,3,1,1,19,0,19,19,1,no
12,5,1,0,0,0,1,1,12,0,12,12,0,no
5,2,0,0,1,0,0,0,0,0,0,0,0,no
4,1,0,0,0,0,1,1,1,0,1,1,1,no
3,0,0,0,0,0,1,1,3,0,3,3,0,no
7,0,1,1,0,0,1,1,7,0,7,7,0,no
3,1,0,0,1,0,0,0,0,0,0,0,0,no
3,0,0,0,0,0,1,1,3,0,3,3,1,no
3,0,0,0,0,0,0,0,0,0,0,0,0,no
3,0,0,0,0,0,1,1,3,0,3,3,1,no
3,0,0,0,0,0,1,1,3,0,3,3,1,no
8,1,1,1,0,1,0,0,0,0,0,0,0,no
3,0,0,0,0,0,1,1,3,0,3,3,0,no
3,0,0,0,0,0,1,1,3,0,3,3,1,no
3,0,0,0,0,0,1,1,3,0,3,3,0,no
3,0,0,0,0,0,1,1,3,0,3,3,0,no
3,0,0,0,0,0,1,1,3,0,3,3,0,no
3,0,0,0,0,0,2,1,2,2,2,2,1,no
24,1,6,3,0,6,2,1,24,0,23,12,0,no
3,0,0,0,0,0,2,1,4,1,3,2.5,1,no
6,1,1,1,0,0,1,1,6,0,6,6,0,no
3,0,0,0,0,0,2,1,4,1,3,2.5,1,no
15,1,3,2,0,5,1,1,15,0,15,15,0,no
52,2,8,2,3,11,7,3,57,5,43,8.857143,1,no
32,2,5,4,6,5,2,1,33,1,32,17,1,no
23,0,4,2,0,5,7,5,10,5,3,2.142857,1,no
19,0,4,2,0,3,5,4,24,5,21,5.8,1,no
3,1,0,0,0,0,1,1,3,0,3,3,0,no
3,1,0,0,0,0,1,1,3,0,3,3,1,no
3,1,0,0,0,0,1,1,3,0,3,3,1,no
3,1,0,0,0,0,1,1,3,0,3,3,0,no
5,0,0,0,0,1,1,1,5,0,5,5,0,no
8,6,0,0,0,0,2,2,9,1,9,5,0,no
9,4,0,0,0,0,1,1,9,0,9,9,0,no
3,0,0,0,0,0,2,1,2,2,2,2,1,no
4,0,0,0,0,0,1,1,4,0,4,4,0,no
68,2,12,3,2,2,3,2,69,1,47,23.333333,1,yes
9,2,2,2,0,0,1,1,9,0,9,9,1,yes
8,3,1,1,0,0,1,1,8,0,8,8,1,yes
5,2,0,0,0,0,1,1,1,1,2,2,1,no
8,4,1,1,1,0,1,1,1,1,2,2,1,yes
8,0,1,1,0,1,1,1,4,0,4,4,1,yes
17,0,2,2,0,1,6,2,14,2,8,2.666667,1,yes
29,4,3,2,4,2,7,2,15,5,9,2.857143,1,yes
9,3,1,1,2,0,3,2,11,2,9,4.333333,1,yes
12,2,2,2,0,0,3,1,12,0,9,4,1,yes
3,6,0,0,0,0,1,1,3,0,3,3,1,no
3,0,0,0,0,0,1,1,3,0,3,3,1,no
4,2,0,0,0,0,1,1,0,3,3,3,0,no
6,2,0,0,0,1,1,1,1,1,2,2,1,no
3,0,0,0,0,0,0,0,0,0,0,0,0,no
3,0,0,0,0,0,1,1,1,1,2,2,0,no
3,3,0,0,0,0,1,1,1,1,2,2,0,no
12,0,1,1,0,3,1,1,12,0,12,12,0,no
13,6,0,0,1,0,2,1,14,1,13,7.5,1,no
3,0,0,0,0,0,1,1,3,0,3,3,1,no
3,0,0,0,0,0,0,0,0,0,0,0,0,no
32,0,7,4,1,6,8,2,29,15,11,5.5,1,yes
3,0,0,0,0,0,0,0,0,0,0,0,0,no
17,5,4,2,1,2,9,3,12,21,9,3.666667,1,no
4,2,0,0,0,0,5,2,8,4,4,2.4,1,no
3,0,0,0,0,0,0,0,0,0,0,0,0,no
17,1,4,3,2,2,5,1,17,3,10,4,1,no
14,0,4,3,0,2,3,1,15,1,7,5.333333,1,no
7,3,0,0,1,0,4,1,10,3,4,3.25,1,no
16,2,2,1,0,1,2,1,32,0,16,16,1,no
10,1,2,2,0,3,2,1,20,0,10,10,1,no
7,1,1,1,0,1,2,1,14,0,7,7,1,no
9,0,2,2,0,2,2,1,18,0,9,9,1,no
3,0,0,0,0,0,1,1,3,0,3,3,0,no
22,3,5,2,1,1,5,1,39,2,21,8.2,1,no
13,1,2,1,0,2,3,1,27,1,13,9.333333,1,no
3,0,0,0,0,0,2,1,6,0,3,3,1,no
23,0,3,2,1,3,6,1,29,6,15,5.833333,1,no
3,0,0,0,0,0,1,1,3,0,3,3,0,no
4,2,0,0,0,0,2,1,8,0,4,4,1,no
5,0,0,0,0,0,1,1,5,0,5,5,0,no
11,1,2,2,0,3,1,1,11,0,11,11,0,no
3,1,0,0,0,0,1,1,3,0,3,3,0,no
3,1,0,0,0,0,1,1,3,0,3,3,0,no
22,1,3,2,1,2,1,1,22,0,22,22,0,no
33,3,5,4,0,9,1,1,33,0,33,33,0,no
31,2,5,3,1,8,2,2,32,1,31,16.5,0,no
21,2,3,2,0,3,1,1,21,0,21,21,0,no
17,1,2,1,0,3,1,1,17,0,17,17,0,no
8,4,1,1,0,0,1,1,8,0,8,8,0,no
21,3,4,2,0,3,1,1,21,0,21,21,0,no
17,4,3,2,1,3,1,1,17,0,17,17,0,no
2,0,0,0,0,0,1,1,2,0,2,2,0,no
5,2,0,0,0,0,1,1,5,0,5,5,0,no
7,1,1,1,0,1,1,1,7,0,7,7,0,no
3,0,0,0,0,0,1,1,3,0,3,3,0,no
3,0,0,0,0,0,1,1,3,0,3,3,0,no
3,0,0,0,0,0,1,1,3,0,3,3,0,no
3,0,0,0,0,0,1,1,3,0,3,3,0,no
3,0,0,0,0,0,1,1,3,0,3,3,0,no
3,0,0,0,0,0,1,1,3,0,3,3,0,no
3,1,0,0,0,0,1,1,3,0,3,3,0,no
3,1,0,0,0,0,1,1,3,0,3,3,0,no
3,1,0,0,0,0,1,1,3,0,3,3,0,no
3,0,0,0,0,0,1,1,3,0,3,3,0,no
2,0,0,0,0,0,1,1,2,0,2,2,0,no
7,1,1,1,0,2,1,1,7,0,7,7,0,no
0,1,0,0,1,0,1,1,0,0,0,0,0,no
0,0,0,0,2,0,1,1,0,0,0,0,0,no
2,1,0,0,0,0,1,1,2,0,2,2,0,no
3,0,0,0,0,0,1,1,3,0,3,3,0,no
0,2,0,0,0,0,1,1,0,0,0,0,0,no
6,2,0,0,0,0,1,1,6,0,6,6,0,no
12,1,2,2,0,4,1,1,12,0,12,12,0,no
17,2,4,2,0,4,1,1,17,0,17,17,0,no
7,0,1,1,0,2,1,1,7,0,7,7,0,no
3,0,0,0,0,0,1,1,3,0,3,3,0,no
4,1,0,0,0,0,1,1,4,0,4,4,0,no
6,1,2,1,0,0,1,1,6,0,6,6,0,no
3,2,0,0,0,0,1,1,3,0,3,3,0,no
7,2,0,0,0,0,4,2,10,3,7,3.25,1,no
5,0,1,1,0,1,5,2,9,4,5,2.6,1,no
5,0,1,1,0,1,2,1,5,0,3,2.5,1,no
33,5,7,3,2,3,7,3,37,4,25,5.857143,1,yes
0,2,0,0,1,0,1,1,0,0,0,0,1,no
3,5,0,0,0,0,1,1,3,0,3,3,0,no
3,1,0,0,0,0,2,1,4,1,3,2.5,1,no
4,3,0,0,1,0,1,1,4,0,4,4,0,no
3,3,0,0,0,0,1,1,3,0,3,3,0,no
4,5,0,0,1,0,2,2,5,1,4,3,1,no
3,2,0,0,0,0,1,1,3,0,3,3,0,no
2,0,0,0,0,0,1,1,2,0,2,2,0,no
19,2,2,2,1,0,2,1,20,1,19,10.5,1,no
5,3,0,0,0,0,1,1,5,0,5,5,0,no
12,0,0,0,0,1,1,1,12,0,12,12,0,no
3,0,0,0,0,0,1,1,3,0,3,3,1,no
7,1,1,1,0,2,1,1,7,0,7,7,0,no
3,2,0,0,0,0,2,1,4,1,3,2.5,0,no
4,1,0,0,0,0,1,1,4,0,4,4,0,no
3,1,0,0,0,0,1,1,3,0,3,3,0,no
4,0,0,0,0,0,1,1,4,0,4,4,1,no
16,1,4,3,0,2,2,1,17,1,16,9,1,no
9,1,2,2,0,1,0,0,0,0,0,0,0,no
4,0,0,0,0,0,0,0,0,0,0,0,0,no
3,0,0,0,0,0,0,0,0,0,0,0,0,no
3,0,0,0,0,0,0,0,0,0,0,0,0,no
3,0,0,0,0,0,0,0,0,0,0,0,0,no
4,0,0,0,0,0,0,0,0,0,0,0,0,no
3,1,0,0,0,0,0,0,0,0,0,0,0,no
3,1,0,0,0,0,0,0,0,0,0,0,0,no
3,1,0,0,0,0,0,0,0,0,0,0,0,no
3,0,0,0,0,0,0,0,0,0,0,0,0,no
4,0,0,0,0,0,1,1,4,0,4,4,0,no
3,0,0,0,0,0,1,1,3,0,3,3,0,no
3,0,0,0,0,0,1,1,3,0,3,3,1,no
3,0,0,0,0,0,1,1,3,0,3,3,0,no
3,0,0,0,0,0,1,1,3,0,3,3,0,no
3,0,0,0,0,0,1,1,3,0,3,3,0,no
3,0,0,0,0,0,1,1,3,0,3,3,1,no
3,0,0,0,0,0,1,1,3,0,3,3,1,no
3,1,0,0,0,0,1,1,3,0,3,3,0,no
3,1,0,0,0,0,1,1,3,0,3,3,0,no
4,1,0,0,0,1,1,1,4,0,4,4,0,no
3,1,0,0,0,0,1,1,3,0,3,3,0,no
3,1,0,0,0,0,1,1,3,0,3,3,0,no
3,1,0,0,0,0,1,1,3,0,3,3,1,no
3,1,0,0,0,0,1,1,3,0,3,3,0,no
3,1,0,0,0,0,1,1,3,0,3,3,0,no
3,1,0,0,0,0,1,1,3,0,3,3,0,no
3,1,0,0,0,0,1,1,3,0,3,3,1,no
3,0,0,0,0,0,1,1,3,0,3,3,0,no
4,1,0,0,0,0,1,1,4,0,4,4,0,no
3,0,0,0,0,0,1,1,3,0,3,3,0,no
3,0,0,0,0,0,2,2,4,1,3,2.5,1,no
3,0,0,0,0,0,1,1,3,0,3,3,0,no
3,0,0,0,0,0,1,1,3,0,3,3,0,no
3,0,0,0,0,0,1,1,3,0,3,3,1,no
3,0,0,0,0,0,1,1,3,0,3,3,0,no
3,0,0,0,0,0,2,1,6,0,3,3,1,no
3,0,0,0,0,0,1,1,3,0,3,3,0,no
7,0,1,1,1,1,3,2,8,1,4,3,1,no
3,0,0,0,0,0,1,1,3,0,3,3,0,no
4,1,0,0,0,0,2,1,5,1,4,3,1,no
4,1,0,0,0,0,3,2,6,2,4,2.666667,1,no
4,1,0,0,0,0,2,1,5,1,4,3,1,no
4,1,0,0,0,0,1,1,4,0,4,4,0,no
4,1,0,0,0,0,1,1,4,0,4,4,1,no
4,1,0,0,0,0,1,1,4,0,4,4,0,no
4,1,0,0,0,0,2,1,8,0,4,4,1,no
4,1,0,0,0,0,2,1,5,1,4,3,1,no
4,1,0,0,0,0,2,1,5,1,4,3,1,no
4,1,0,0,0,0,3,1,6,2,4,2.666667,1,no
0,0,0,0,1,0,1,1,0,0,0,0,0,no
0,1,0,0,1,0,1,1,0,0,0,0,0,no
3,0,0,0,0,0,1,1,3,0,3,3,0,no
4,1,0,0,0,0,1,1,4,0,4,4,0,no
3,0,0,0,0,0,1,1,3,0,3,3,0,no
3,0,0,0,0,0,2,1,4,1,3,2.5,1,no
3,0,0,0,0,0,1,1,3,0,3,3,0,no
3,0,0,0,0,0,1,1,3,0,3,3,0,no
3,0,0,0,0,0,1,1,3,0,3,3,0,no
3,0,0,0,0,0,1,1,3,0,3,3,0,no
3,0,0,0,0,0,1,1,3,0,3,3,0,no
3,0,0,0,0,0,1,1,3,0,3,3,0,no
3,0,0,0,0,0,1,1,3,0,3,3,0,no
7,0,1,1,0,1,1,1,7,0,7,7,0,no
3,0,0,0,0,0,1,1,3,0,3,3,0,no
3,0,0,0,0,0,1,1,3,0,3,3,0,no
7,0,1,1,0,1,2,2,8,1,7,4.5,1,no
8,0,1,1,0,3,2,2,11,3,11,7,1,no
3,0,0,0,0,0,1,1,3,0,3,3,0,no
3,0,0,0,0,0,1,1,3,0,3,3,0,no
3,0,0,0,0,0,1,1,3,0,3,3,0,no
3,0,0,0,0,0,1,1,3,0,3,3,0,no
3,0,0,0,0,0,1,1,3,0,3,3,0,no
3,0,0,0,0,0,1,1,3,0,3,3,0,no
3,0,0,0,0,0,1,1,3,0,3,3,0,no
3,0,0,0,0,0,1,1,3,0,3,3,0,no
3,0,0,0,0,0,1,1,3,0,3,3,0,no
3,0,0,0,0,0,1,1,3,0,3,3,0,no
3,0,0,0,0,0,1,1,3,0,3,3,0,no
3,0,0,0,0,0,1,1,3,0,3,3,0,no
7,0,1,1,1,1,3,2,8,1,4,3,1,no
3,0,0,0,0,0,1,1,3,0,3,3,0,no
3,0,0,0,0,0,1,1,3,0,3,3,0,no
3,0,0,0,0,0,1,1,3,0,3,3,0,no
3,0,0,0,0,0,1,1,3,0,3,3,0,no
4,1,0,0,0,0,1,1,4,0,4,4,0,no
3,1,0,0,0,0,1,1,3,0,3,3,0,no
4,1,0,0,0,0,1,1,4,0,4,4,0,no
4,1,0,0,0,0,2,1,5,1,4,3,1,no
4,1,0,0,0,0,1,1,4,0,4,4,0,no
4,1,0,0,0,0,1,1,4,0,4,4,0,no
4,1,0,0,0,0,2,1,5,1,4,3,1,no
4,1,0,0,0,0,2,1,5,1,4,3,1,no
4,1,0,0,0,0,2,1,5,1,4,3,1,no
4,1,0,0,0,0,2,1,5,1,4,3,1,no
4,1,0,0,0,0,1,1,4,0,4,4,0,yes
7,1,1,1,0,0,3,2,9,2,7,3.666667,1,no
4,1,0,0,0,0,1,1,4,0,4,4,0,no
4,1,0,0,0,0,1,1,4,0,4,4,0,no
4,1,0,0,0,0,1,1,4,0,4,4,0,no
4,1,0,0,0,0,2,1,5,1,4,3,1,no
4,1,0,0,0,0,2,1,5,1,4,3,1,no
4,1,0,0,0,0,1,1,4,0,4,4,0,no
4,1,0,0,0,0,1,1,4,0,4,4,0,no
4,1,0,0,0,0,1,1,4,0,4,4,1,no
3,1,0,0,0,0,1,1,3,0,3,3,0,no
4,1,0,0,0,0,1,1,4,0,4,4,1,no
4,1,0,0,0,0,1,1,4,0,4,4,1,no
4,1,0,0,0,0,1,1,4,0,4,4,0,no
4,1,0,0,0,0,2,1,5,1,4,3,1,no
4,1,0,0,0,0,1,1,4,0,4,4,0,no
4,1,0,0,0,0,2,1,5,1,4,3,1,no
4,1,0,0,0,0,3,1,6,2,4,2.666667,1,no
3,0,0,0,0,0,1,1,3,0,3,3,0,no
3,0,0,0,0,0,1,1,3,0,3,3,0,no
15,2,2,1,2,2,2,1,16,1,15,8.5,0,no
9,3,2,2,1,2,1,1,9,0,9,9,0,no
5,2,0,0,0,0,2,2,6,1,6,3.5,0,no
21,6,3,1,1,3,3,2,23,2,22,8.333333,1,no
2,0,0,0,1,0,1,1,2,0,2,2,1,no
0,1,0,0,0,0,1,1,0,0,0,0,0,no
0,1,0,0,0,0,1,1,0,0,0,0,0,no
6,1,1,1,1,0,5,3,10,4,6,2.8,1,no
15,2,3,2,1,2,3,2,17,2,15,6.333333,0,no
28,2,4,2,2,1,1,1,28,0,28,28,0,no
31,3,5,3,0,2,1,1,31,0,31,31,0,no
22,3,3,2,1,2,3,2,24,2,22,8.666667,1,no
23,5,4,2,2,1,1,1,23,0,23,23,0,no
16,2,3,1,1,3,1,1,16,0,16,16,0,no
11,4,2,2,1,0,2,2,12,1,11,6.5,1,no
12,3,2,2,0,1,1,1,12,0,12,12,0,no
4,2,0,0,0,0,3,3,6,2,4,2.666667,0,no
3,5,0,0,0,0,1,1,3,0,3,3,1,no
21,2,2,2,2,2,3,1,23,2,21,8.333333,0,no
10,1,1,1,0,2,1,1,10,0,10,10,1,no
5,1,0,0,0,1,1,1,5,0,5,5,1,no
32,0,3,1,0,3,2,2,32,0,23,16,0,no
4,0,0,0,0,0,2,2,4,0,3,2,0,no
7,0,1,1,0,0,2,2,13,6,13,9.5,0,no
13,0,2,1,0,1,1,1,13,0,13,13,0,no
15,4,2,2,2,1,4,1,16,1,7,4.25,1,no
12,2,2,2,0,4,1,1,12,0,12,12,0,no
3,0,0,0,0,0,1,1,3,0,3,3,0,no
8,3,1,1,0,0,1,1,8,0,8,8,0,no
3,0,0,0,0,0,1,1,3,0,3,3,0,no
3,0,0,0,0,0,1,1,3,0,3,3,0,no
2,0,0,0,0,0,1,1,2,0,2,2,0,no
7,2,0,0,0,1,3,2,9,2,8,3.666667,0,no
19,5,1,1,0,2,1,1,19,0,19,19,1,no
24,6,2,1,2,1,1,1,24,0,24,24,1,no
8,0,1,1,0,0,1,1,8,0,8,8,1,no
50,2,4,1,4,4,4,2,54,4,52,14.5,0,no
3,2,0,0,0,0,1,1,3,0,3,3,1,no
7,1,1,1,0,1,2,2,11,8,11,9.5,1,no
3,1,0,0,0,0,2,2,11,8,11,9.5,1,no
10,1,1,1,0,2,1,1,10,0,10,10,1,no
3,1,0,0,0,0,3,3,7,4,6,3.666667,1,no
3,0,0,0,0,0,1,1,3,0,3,3,0,no
3,2,0,0,0,0,1,1,3,0,3,3,1,no
3,1,0,0,0,0,1,1,3,0,3,3,1,no
19,3,2,1,2,1,1,1,19,0,19,19,1,no
9,4,1,1,1,1,1,1,9,0,9,9,1,no
14,2,1,1,0,2,1,1,14,0,14,14,1,no
4,2,0,0,0,1,1,1,4,0,4,4,1,no
45,4,4,1,4,4,6,2,49,4,44,8.833333,1,no
12,0,1,1,1,0,2,2,14,2,14,8,1,no
7,3,1,1,1,0,2,2,9,2,9,5.5,1,no
9,4,1,1,1,0,4,1,10,1,7,2.75,1,no
3,1,0,0,0,0,1,1,3,0,3,3,1,no
32,6,3,1,2,7,1,1,32,0,32,32,1,no
19,3,2,1,1,3,1,1,19,0,19,19,1,no
3,0,0,0,1,0,1,1,3,0,3,3,1,no
16,2,2,1,0,4,3,2,18,2,16,6.666667,0,no
4,0,0,0,0,0,3,2,14,10,13,8,1,no
8,0,1,1,0,1,2,2,8,0,6,4,0,no
21,0,4,2,0,1,2,2,21,0,20,10.5,0,no
28,0,7,4,0,1,2,1,28,0,26,14,0,no
12,2,2,2,0,4,1,1,12,0,12,12,0,no
3,0,0,0,0,0,1,1,3,0,3,3,0,no
8,3,1,1,0,0,1,1,8,0,8,8,0,no
3,0,0,0,0,0,1,1,3,0,3,3,0,no
3,0,0,0,0,0,1,1,3,0,3,3,0,no
2,0,0,0,0,0,1,1,2,0,2,2,0,no
3,2,0,0,0,0,2,1,4,1,4,2.5,1,no
5,3,0,0,0,0,1,1,5,0,5,5,0,no
4,2,0,0,0,1,2,2,5,1,4,3,0,no
10,1,2,1,0,1,2,1,11,1,10,6,1,no
3,0,0,0,0,0,1,1,3,0,3,3,0,no
3,0,0,0,0,0,1,1,3,0,3,3,0,no
3,0,0,0,0,0,2,1,4,1,3,2.5,1,no
3,0,0,0,0,0,1,1,3,0,3,3,1,no
3,0,0,0,0,0,2,1,4,1,3,2.5,0,no
23,1,4,2,2,6,3,2,26,3,25,9.666667,1,no
15,2,2,2,0,3,2,2,16,1,15,8.5,1,no
5,0,0,0,0,1,3,2,9,4,8,4.333333,1,no
4,2,0,0,0,1,2,2,5,1,4,3,1,no
5,0,0,0,0,1,2,1,6,1,5,3.5,1,no
0,5,0,0,1,0,1,1,0,0,0,0,1,no
0,2,0,0,1,0,1,1,0,0,0,0,0,no
0,0,0,0,1,0,1,1,0,0,0,0,0,no
0,2,0,0,1,0,1,1,0,0,0,0,0,no
0,3,0,0,1,0,1,1,0,0,0,0,0,no
0,3,0,0,1,0,1,1,0,0,0,0,0,no
3,1,0,0,0,0,2,2,4,1,3,2.5,0,no
3,0,0,0,0,0,2,2,4,1,3,2.5,0,no
3,0,0,0,0,0,1,1,3,0,3,3,0,no
3,0,0,0,0,0,1,1,3,0,3,3,0,no
3,0,0,0,0,0,2,2,4,1,3,2.5,0,no
0,0,0,0,1,0,1,1,0,0,0,0,0,no
0,0,0,0,1,0,1,1,0,0,0,0,0,no
31,3,6,4,1,5,2,1,31,0,30,15.5,1,no
11,2,1,1,0,2,1,1,11,0,11,11,0,no
0,0,0,0,0,0,1,1,0,0,0,0,0,no
0,3,0,0,1,0,1,1,0,0,0,0,0,no
0,0,0,0,0,0,1,1,0,0,0,0,0,no
53,2,12,3,1,6,3,2,84,31,83,38.333333,1,no
0,0,0,0,0,0,1,1,0,0,0,0,0,no
0,0,0,0,0,0,1,1,0,0,0,0,0,no
0,0,0,0,0,0,1,1,0,0,0,0,0,no
0,0,0,0,0,0,1,1,0,0,0,0,0,no
0,0,0,0,0,0,1,1,0,0,0,0,0,no
0,0,0,0,0,0,1,1,0,0,0,0,0,no
0,0,0,0,0,0,1,1,0,0,0,0,0,no
0,1,0,0,0,0,1,1,0,0,0,0,0,no
0,2,0,0,0,0,1,1,0,0,0,0,0,no
0,1,0,0,0,0,1,1,0,0,0,0,0,no
0,0,0,0,0,0,1,1,0,0,0,0,0,no
0,1,0,0,0,0,1,1,0,0,0,0,0,no
12,1,2,2,1,2,1,1,12,0,12,12,0,no
3,0,0,0,0,0,1,1,3,0,3,3,0,no
16,3,2,1,1,2,1,1,16,0,16,16,0,no
3,1,1,0,0,0,1,1,3,0,3,3,0,no
3,1,1,0,0,0,1,1,3,0,3,3,0,no
3,0,0,0,0,0,1,1,3,0,3,3,0,no
3,0,0,0,0,0,1,1,3,0,3,3,0,no
5,4,2,0,0,1,1,1,5,0,5,5,0,no
3,0,0,0,0,0,1,1,3,0,3,3,0,no
3,1,0,0,0,0,1,1,3,0,3,3,0,no
30,6,3,1,2,5,1,1,30,0,30,30,0,no
18,3,2,1,1,2,1,1,18,0,18,18,0,no
3,0,0,0,1,0,1,1,3,0,3,3,0,no
15,3,1,1,2,1,3,2,15,0,9,5,0,no
8,6,0,0,0,0,1,1,8,0,8,8,0,no
17,5,2,1,0,1,1,1,17,0,17,17,0,no
8,0,1,1,0,0,2,2,9,1,8,5,0,no
48,2,5,1,3,3,2,1,49,1,48,25,0,no
43,6,6,2,2,6,1,1,43,0,43,43,0,no
10,1,1,1,0,2,1,1,10,0,10,10,0,no
3,0,0,0,0,0,1,1,3,0,3,3,0,no
28,2,3,1,3,3,1,1,28,0,28,28,0,no
18,3,2,2,0,2,1,1,18,0,18,18,0,no
26,3,3,3,1,4,1,1,26,0,26,26,0,no
17,3,3,3,1,1,1,1,17,0,17,17,0,no
21,3,3,1,3,1,1,1,21,0,21,21,0,no
12,3,2,2,0,1,1,1,12,0,12,12,0,no
11,3,2,1,0,0,1,1,11,0,11,11,0,no
33,3,5,2,2,5,1,1,33,0,33,33,0,no
8,3,1,1,1,0,1,1,8,0,8,8,0,no
3,0,0,0,0,0,1,1,3,0,3,3,0,no
43,4,5,1,3,3,1,1,43,0,43,43,0,no
7,3,1,1,1,0,1,1,7,0,7,7,0,no
13,3,2,1,0,0,1,1,13,0,13,13,0,no
14,0,1,1,0,1,1,1,14,0,14,14,0,no
13,0,2,1,0,0,2,2,14,1,13,7.5,0,no
13,0,2,2,0,2,2,2,14,1,13,7.5,0,no
8,3,1,1,0,0,1,1,8,0,8,8,0,no
8,0,2,2,0,0,1,1,8,0,8,8,0,no
6,2,0,0,1,0,1,1,6,0,6,6,0,no
3,0,0,0,0,0,1,1,3,0,3,3,0,no
3,0,0,0,0,0,1,1,3,0,3,3,0,no
15,2,1,1,1,1,6,3,19,4,9,3.833333,0,no
44,0,11,4,4,4,2,1,45,1,44,23,0,no
15,0,4,2,1,1,2,1,16,1,15,8.5,0,no
17,0,3,1,0,1,5,3,19,2,13,4.2,1,no
16,0,3,1,0,0,3,2,17,1,13,6,0,no
8,1,1,1,0,1,1,1,8,0,8,8,0,no
26,0,5,3,0,3,4,1,28,2,25,7.5,0,no
53,3,10,4,3,9,4,1,55,2,43,14.25,0,no
7,2,0,0,0,4,1,1,7,0,7,7,0,no
3,2,0,0,0,0,1,1,3,0,3,3,0,no
3,1,0,0,0,0,2,1,4,1,3,2.5,0,no
15,0,3,2,1,0,2,2,16,1,15,8.5,0,no
31,1,8,5,4,6,2,1,31,0,19,15.5,0,no
41,2,9,5,3,5,4,1,44,3,42,11.75,0,no
22,1,4,2,0,1,2,2,23,1,22,12,0,no
15,0,2,1,0,1,1,1,15,0,15,15,0,no
16,1,4,2,1,1,2,1,17,1,16,9,0,no
7,0,1,1,0,1,1,1,7,0,7,7,0,no
2,1,0,0,0,0,3,1,7,2,5,3,0,no
5,1,1,1,0,0,3,1,7,2,5,3,0,no
5,1,1,1,0,0,3,1,7,2,5,3,0,no
4,2,0,0,0,0,1,1,4,0,4,4,0,no
3,0,0,0,0,0,1,1,3,0,3,3,0,no
3,0,0,0,0,0,1,1,3,0,3,3,0,no
3,1,0,0,0,0,1,1,3,0,3,3,0,no
21,1,6,3,0,2,2,1,21,0,17,10.5,1,no
3,0,0,0,0,0,1,1,3,0,3,3,0,no
4,1,0,0,0,0,1,1,4,0,4,4,0,no
3,0,0,0,0,0,1,1,3,0,3,3,0,no
2,0,0,0,0,0,1,1,2,0,2,2,0,no
8,1,1,1,0,1,1,1,8,0,8,8,0,no
3,1,0,0,0,0,1,1,3,0,3,3,0,no
3,1,0,0,0,0,1,1,3,0,3,3,0,no
3,0,0,0,0,0,1,1,3,0,3,3,0,no
3,0,0,0,0,0,1,1,3,0,3,3,0,no
2,2,0,0,0,0,1,1,2,0,2,2,0,no
3,0,0,0,0,0,1,1,3,0,3,3,0,no
5,3,0,0,0,0,1,1,5,0,5,5,0,no
13,3,1,1,0,1,1,1,13,0,13,13,0,no
2,0,0,0,0,0,1,1,2,0,2,2,0,no
3,0,0,0,0,0,1,1,3,0,3,3,0,no
6,1,1,1,0,0,1,1,6,0,6,6,0,no
13,1,1,1,0,6,1,1,13,0,13,13,0,no
8,0,1,1,0,1,1,1,8,0,8,8,0,no
7,2,0,0,1,2,2,2,7,0,5,3.5,0,no
23,3,6,2,0,2,1,1,23,0,23,23,0,no
2,0,0,0,0,0,1,1,2,0,2,2,0,no
3,1,0,0,0,0,1,1,3,0,3,3,0,no
8,3,0,0,0,0,1,1,8,0,8,8,0,no
8,4,0,0,0,0,1,1,8,0,8,8,0,no
3,0,0,0,0,0,1,1,3,0,3,3,0,no
3,2,0,0,0,0,1,1,3,0,3,3,0,no
3,3,0,0,0,0,1,1,3,0,3,3,0,no
3,7,0,0,0,0,1,1,3,0,3,3,0,no
39,6,10,3,1,3,1,1,39,0,39,39,0,no
9,8,0,0,0,1,1,1,9,0,9,9,0,no
21,3,4,2,0,1,1,1,21,0,21,21,0,no
13,5,1,1,0,1,1,1,13,0,13,13,0,no
11,2,2,1,0,1,1,1,11,0,11,11,0,no
13,4,1,1,0,1,1,1,13,0,13,13,0,no
12,4,3,1,0,2,1,1,12,0,12,12,0,no
3,0,0,0,0,0,1,1,4,0,4,4,0,no
3,0,0,0,0,0,1,1,4,0,4,4,0,no
8,0,1,1,0,1,1,1,4,0,4,4,0,no
8,0,1,1,0,1,1,1,4,0,4,4,0,no
4,0,0,0,0,1,1,1,4,0,4,4,0,no
3,1,0,0,0,0,1,1,3,0,3,3,0,no
3,1,0,0,0,0,1,1,3,0,3,3,0,no
21,1,6,3,0,2,1,1,21,0,21,21,0,no
7,1,1,1,2,1,1,1,7,0,7,7,0,no
3,0,0,0,0,0,1,1,3,0,3,3,0,no
4,0,0,0,0,0,1,1,4,0,4,4,0,no
3,0,0,0,0,0,1,1,3,0,3,3,0,no
4,2,0,0,0,0,1,1,4,0,4,4,0,no
4,2,0,0,0,0,1,1,4,0,4,4,0,no
4,3,0,0,0,0,1,1,4,0,4,4,0,no
3,1,0,0,0,0,1,1,3,0,3,3,0,no
3,2,0,0,0,0,1,1,3,0,3,3,0,no
21,3,9,1,0,0,1,1,21,0,21,21,0,no
3,0,0,0,0,0,1,1,3,0,3,3,0,no
3,1,0,0,0,0,1,1,3,0,3,3,0,no
3,2,0,0,0,0,1,1,3,0,3,3,0,no
4,2,0,0,1,0,1,1,4,0,4,4,0,no
3,1,0,0,0,0,1,1,3,0,3,3,0,no
3,0,0,0,0,0,1,1,3,0,3,3,0,no
3,0,0,0,0,0,1,1,3,0,3,3,0,no
3,1,0,0,0,0,1,1,3,0,3,3,0,no
3,2,0,0,0,0,1,1,3,0,3,3,0,no
3,1,0,0,0,0,1,1,3,0,3,3,0,no
3,2,0,0,0,0,1,1,3,0,3,3,0,no
3,1,0,0,0,0,1,1,3,0,3,3,0,no
3,2,0,0,0,0,1,1,3,0,3,3,0,no
3,1,0,0,0,0,1,1,3,0,3,3,0,no
3,2,0,0,0,0,1,1,3,0,3,3,0,no
3,1,0,0,0,0,1,1,3,0,3,3,0,no
3,2,0,0,0,0,1,1,3,0,3,3,0,no
3,1,0,0,0,0,1,1,3,0,3,3,0,no
3,2,0,0,0,0,1,1,3,0,3,3,0,no
3,1,0,0,0,0,1,1,3,0,3,3,0,no
3,2,0,0,0,0,1,1,3,0,3,3,0,no
0,0,0,0,1,0,1,1,0,0,0,0,0,no
0,1,0,0,1,0,1,1,0,0,0,0,0,no
0,1,0,0,1,0,1,1,0,0,0,0,0,no
0,0,0,0,1,0,1,1,0,0,0,0,0,no
0,0,0,0,1,0,1,1,0,0,0,0,0,no
0,2,0,0,1,0,1,1,0,0,0,0,0,no
0,3,0,0,1,0,1,1,0,0,0,0,0,no
0,3,0,0,1,0,1,1,0,0,0,0,0,no
0,0,0,0,1,0,1,1,0,0,0,0,0,no
0,1,0,0,1,0,1,1,0,0,0,0,0,no
3,3,0,0,0,0,1,1,3,0,3,3,0,no
2,0,0,0,0,0,1,1,2,0,2,2,0,no
3,0,0,0,0,0,1,1,3,0,3,3,0,no
3,1,0,0,0,0,1,1,3,0,3,3,0,no
3,1,0,0,0,0,1,1,3,0,3,3,0,no
3,2,0,0,0,0,1,1,3,0,3,3,0,no
3,1,0,0,0,0,1,1,3,0,3,3,0,no
7,1,1,1,2,0,1,1,7,0,7,7,0,no
0,7,0,0,1,0,1,1,0,0,0,0,0,no
0,8,0,0,1,0,1,1,0,0,0,0,0,no
0,0,0,0,1,0,1,1,0,0,0,0,0,no
0,3,0,0,1,0,1,1,0,0,0,0,0,no
0,4,0,0,1,0,1,1,0,0,0,0,0,no
0,0,0,0,1,0,1,1,0,0,0,0,0,no
0,2,0,0,1,0,1,1,0,0,0,0,0,no
0,3,0,0,1,0,1,1,0,0,0,0,0,no
0,5,0,0,1,0,1,1,0,0,0,0,0,no
0,4,0,0,1,0,1,1,0,0,0,0,0,no
4,2,0,0,0,0,1,1,4,0,4,4,0,no
3,0,0,0,0,0,1,1,3,0,3,3,0,no
3,0,0,0,0,0,1,1,3,0,3,3,0,no
3,1,0,0,0,0,1,1,3,0,3,3,0,no
3,1,0,0,0,0,1,1,3,0,3,3,0,no
30,2,4,2,4,9,1,1,30,0,30,30,0,no
3,1,0,0,0,0,1,1,3,0,3,3,0,no
10,3,2,1,0,0,1,1,10,0,10,10,0,no
6,0,1,1,0,0,1,1,6,0,6,6,0,no
5,3,0,0,0,0,1,1,5,0,5,5,0,no
7,0,1,1,0,0,1,1,7,0,7,7,0,no
3,0,0,0,0,0,1,1,3,0,3,3,0,no
3,1,0,0,0,0,1,1,3,0,3,3,0,no
4,0,0,0,0,0,1,1,4,0,4,4,0,no
17,1,4,2,0,4,1,1,17,0,17,17,0,no
3,1,0,0,0,0,1,1,3,0,3,3,0,no
3,0,0,0,0,0,1,1,3,0,3,3,0,no
3,0,0,0,0,0,1,1,3,0,3,3,0,no
8,0,1,1,0,3,1,1,8,0,8,8,0,no
10,1,2,2,0,1,1,1,10,0,10,10,0,no
11,1,2,1,0,3,1,1,11,0,11,11,0,no
4,2,0,0,0,0,1,1,4,0,4,4,0,no
19,0,3,2,0,4,2,2,20,1,19,10.5,1,no
2,0,0,0,1,0,1,1,2,0,2,2,0,no
3,1,0,0,0,0,1,1,3,0,3,3,0,no
18,0,2,2,0,4,1,1,18,0,18,18,0,no
3,0,0,0,0,0,1,1,3,0,3,3,0,no
3,0,0,0,1,0,1,1,3,0,3,3,0,no
3,1,0,0,0,0,1,1,3,0,3,3,0,no
3,0,0,0,0,0,1,1,3,0,3,3,0,no
3,0,0,0,0,0,1,1,3,0,3,3,0,no
3,1,0,0,0,0,1,1,3,0,3,3,0,no
3,1,0,0,0,0,1,1,3,0,3,3,0,no
7,2,2,2,0,1,1,1,7,0,7,7,0,no
12,1,2,2,1,3,1,1,12,0,12,12,0,no
4,0,0,0,1,1,1,1,4,0,4,4,0,no
9,1,2,2,0,2,1,1,9,0,9,9,0,no
3,0,0,0,0,0,1,1,3,0,3,3,0,no
3,0,0,0,0,0,1,1,3,0,3,3,0,no
11,1,1,1,0,3,1,1,11,0,11,11,0,no
3,0,0,0,0,0,1,1,3,0,3,3,0,no
0,0,0,0,1,0,1,1,0,0,0,0,0,no
0,1,0,0,1,0,1,1,0,0,0,0,0,no
7,1,1,1,0,0,1,1,7,0,7,7,0,no
7,1,1,1,0,2,1,1,7,0,7,7,0,no
3,0,0,0,0,0,1,1,3,0,3,3,0,no
36,1,9,4,5,3,1,1,36,0,36,36,0,no
12,1,1,2,0,0,1,1,12,0,12,12,0,no
28,2,6,2,0,4,1,1,28,0,28,28,0,no
16,1,3,3,1,2,1,1,16,0,16,16,0,no
29,2,5,3,0,5,1,1,29,0,29,29,0,no
13,1,2,2,0,4,1,1,13,0,13,13,0,no
16,1,2,2,1,1,1,1,16,0,16,16,0,no
37,2,6,2,4,5,1,1,37,0,37,37,0,no
4,1,0,0,0,1,1,1,4,0,4,4,0,no
4,1,0,0,0,1,1,1,4,0,4,4,0,no
15,1,1,2,0,2,1,1,15,0,15,15,0,no
11,1,1,2,1,0,1,1,11,0,11,11,0,no
3,1,0,0,0,0,1,1,3,0,3,3,0,no
8,0,0,1,0,0,1,1,8,0,8,8,0,no
8,0,0,1,0,0,1,1,8,0,8,8,0,no
3,1,0,0,0,0,1,1,3,0,3,3,0,no
3,0,0,0,0,0,1,1,3,0,3,3,0,no
3,2,0,0,0,0,1,1,3,0,3,3,0,no
11,2,1,1,0,0,1,1,11,0,11,11,0,no
3,2,0,0,0,0,1,1,3,0,3,3,0,no
31,2,10,5,1,3,1,1,31,0,31,31,0,no
22,1,5,3,2,1,1,1,22,0,22,22,0,no
6,3,0,0,0,1,1,1,6,0,6,6,0,no
15,0,1,1,0,3,1,1,15,0,15,15,0,no
3,1,0,0,0,0,1,1,3,0,3,3,0,no
3,2,0,0,0,0,1,1,3,0,3,3,0,no
3,4,0,0,0,0,1,1,3,0,3,3,0,no
36,1,8,3,2,4,1,1,36,0,36,36,0,no
3,0,0,0,0,0,1,1,3,0,3,3,0,no
3,1,0,0,0,0,1,1,3,0,3,3,0,no
3,0,0,0,0,0,1,1,3,0,3,3,0,no
35,2,10,4,2,7,1,1,35,0,35,35,0,no
20,1,6,2,4,3,1,1,20,0,20,20,0,no
13,1,3,1,1,2,1,1,13,0,13,13,0,no
3,0,0,0,0,0,1,1,3,0,3,3,0,no
3,0,0,0,0,0,1,1,3,0,3,3,0,no
3,1,0,0,1,0,1,1,3,0,3,3,0,no
3,0,0,0,0,0,1,1,3,0,3,3,0,no
3,1,0,0,0,0,1,1,3,0,3,3,0,no
10,0,2,1,1,1,1,1,10,0,10,10,0,no
38,1,9,3,1,7,1,1,38,0,38,38,0,no
3,1,0,0,0,0,1,1,3,0,3,3,0,no
0,0,0,0,1,0,1,1,0,0,0,0,0,no
0,0,0,0,1,0,1,1,0,0,0,0,0,no
0,0,0,0,1,0,1,1,0,0,0,0,0,no
0,0,0,0,1,0,1,1,0,0,0,0,0,no
0,1,0,0,1,0,1,1,0,0,0,0,0,no
0,1,0,0,1,0,1,1,0,0,0,0,0,no
0,1,0,0,1,0,1,1,0,0,0,0,0,no
2,0,0,0,1,0,1,1,2,0,2,2,0,no
9,1,1,1,0,1,1,1,9,0,9,9,0,no
3,2,0,0,0,0,1,1,3,0,3,3,0,no
5,4,0,0,0,0,1,1,5,0,5,5,0,no
3,0,0,0,0,0,1,1,3,0,3,3,0,no
3,0,0,0,0,0,1,1,3,0,3,3,0,no
3,0,0,0,0,0,1,1,3,0,3,3,0,no
3,0,0,0,0,0,1,1,3,0,3,3,0,no
3,1,0,0,0,0,1,1,3,0,3,3,0,no
11,1,2,2,0,4,1,1,11,0,11,11,0,no
12,1,3,1,1,1,1,1,12,0,12,12,0,no
6,2,2,1,1,0,1,1,6,0,6,6,0,no
3,1,0,0,0,0,1,1,3,0,3,3,0,no
3,1,0,0,0,0,1,1,3,0,3,3,0,no
3,1,0,0,0,0,1,1,3,0,3,3,0,no
3,0,0,0,0,0,1,1,3,0,3,3,0,no
3,0,0,0,0,0,1,1,3,0,3,3,0,no
4,1,0,0,0,0,1,1,4,0,4,4,0,no
3,0,0,0,0,0,1,1,3,0,3,3,0,no
3,0,0,0,0,0,1,1,3,0,3,3,0,no
4,1,0,0,0,0,1,1,4,0,4,4,0,no
3,0,0,0,0,0,1,1,3,0,3,3,0,no
2,0,0,0,1,0,1,1,2,0,2,2,0,no
3,0,0,0,0,0,1,1,3,0,3,3,0,no
2,0,0,0,0,0,1,1,2,0,2,2,0,no
27,1,6,2,4,5,1,1,27,0,27,27,0,no
35,1,6,2,5,8,1,1,35,0,35,35,0,no
10,1,1,1,0,0,1,1,10,0,10,10,0,no
3,0,1,0,1,0,1,1,3,0,3,3,0,no
5,0,1,1,0,1,1,1,5,0,5,5,0,no
5,1,1,1,0,1,1,1,5,0,5,5,0,no
7,1,1,1,0,2,1,1,7,0,7,7,0,no
3,0,0,0,0,0,1,1,3,0,3,3,0,no
3,1,0,0,0,0,1,1,3,0,3,3,0,no
3,2,0,0,0,0,1,1,3,0,3,3,0,no
8,6,1,0,0,0,1,1,8,0,8,8,0,no
3,0,0,0,0,0,1,1,3,0,3,3,0,no
3,0,0,0,0,0,1,1,3,0,3,3,0,no
3,0,0,0,0,0,1,1,3,0,3,3,0,no
3,0,0,0,0,0,1,1,3,0,3,3,0,no
3,0,0,0,0,0,1,1,3,0,3,3,0,no
3,0,0,0,0,0,1,1,3,0,3,3,0,no
2,0,0,0,1,0,1,1,2,0,2,2,0,no
8,1,0,0,0,0,1,1,8,0,8,8,0,no
12,1,3,1,0,2,1,1,12,0,12,12,0,no
3,0,0,0,0,0,1,1,3,0,3,3,0,no
11,0,3,2,0,3,1,1,11,0,11,11,0,no
25,1,6,3,0,1,2,2,25,0,21,12.5,1,no
7,3,0,0,0,0,2,2,7,0,5,3.5,1,no
22,8,2,1,0,1,3,2,22,0,13,7.333333,1,no
12,0,1,2,0,1,2,2,7,0,6,3.5,1,no
20,1,4,2,1,4,2,2,21,1,20,11,1,yes
19,1,3,3,0,2,4,2,11,3,8,3.5,1,yes
31,1,3,1,0,11,4,3,4,3,2,1.75,1,no
22,5,2,1,0,1,3,2,22,0,13,7.333333,1,no
22,6,2,1,0,1,3,2,22,0,13,7.333333,1,no
12,2,1,1,0,0,3,2,7,2,5,3,1,yes
12,2,1,1,0,0,3,2,7,2,5,3,1,yes
12,2,1,1,0,0,3,2,7,2,5,3,1,yes
3,0,0,0,0,0,1,1,3,0,3,3,1,no
3,0,0,0,0,0,1,1,3,0,3,3,1,no
3,0,0,0,0,0,1,1,3,0,3,3,1,no
5,0,1,1,0,1,2,2,6,1,5,3.5,1,no
7,5,1,1,0,1,0,0,0,0,0,0,0,no
4,0,0,0,0,0,0,0,0,0,0,0,0,no
4,0,0,0,0,0,0,0,0,0,0,0,0,no
3,0,0,0,0,0,0,0,0,0,0,0,0,no
5,1,1,1,0,0,0,0,0,0,0,0,0,no
12,2,1,1,0,2,2,2,12,0,7,6,0,no
3,0,0,0,0,0,1,1,3,0,3,3,0,no
7,0,0,0,0,0,1,1,7,0,7,7,0,no
6,0,0,0,0,0,2,2,6,0,5,3,0,no
9,0,0,0,0,2,2,2,11,2,11,6.5,0,yes
6,0,0,0,0,0,1,1,6,0,6,6,0,no
14,0,1,1,0,1,2,2,15,1,14,8,0,yes
3,0,0,0,0,0,1,1,3,0,3,3,0,no
7,1,1,1,0,1,1,1,7,0,7,7,0,no
4,0,0,0,0,0,1,1,4,0,4,4,0,no
7,1,1,1,0,1,1,1,7,0,7,7,0,no
3,0,1,0,0,0,1,1,3,0,3,3,0,no
4,6,0,0,0,0,1,1,4,0,4,4,0,no
3,0,0,0,0,0,1,1,3,0,3,3,0,no
3,0,0,0,0,0,1,1,3,0,3,3,0,no
3,0,0,0,0,0,1,1,3,0,3,3,0,no
3,4,0,0,0,0,1,1,3,0,3,3,0,no
5,3,0,0,0,0,1,1,5,0,5,5,0,no
12,1,1,1,0,3,1,1,12,0,12,12,0,no
3,0,0,0,0,0,1,1,3,0,3,3,0,no
3,0,0,0,0,0,1,1,3,0,3,3,0,no
3,0,0,0,0,0,1,1,3,0,3,3,0,no
7,0,1,1,0,0,1,1,7,0,7,7,0,no
3,4,0,0,0,0,1,1,3,0,3,3,0,no
3,5,0,0,0,0,1,1,3,0,3,3,0,no
3,0,0,0,0,0,1,1,3,0,3,3,0,no
4,4,0,0,0,0,1,1,4,0,4,4,0,no
4,5,0,0,0,0,1,1,4,0,4,4,0,no
3,0,0,0,0,0,1,1,3,0,3,3,0,no
3,0,0,0,0,0,1,1,3,0,3,3,0,no
3,5,0,0,0,0,1,1,3,0,3,3,0,no
8,6,0,0,0,0,1,1,8,0,8,8,0,no
3,0,0,0,0,0,1,1,3,0,3,3,0,no
3,0,0,0,0,0,1,1,3,0,3,3,0,no
3,0,0,0,0,0,1,1,3,0,3,3,0,no
4,0,0,0,0,0,1,1,4,0,4,4,0,no
3,0,0,0,0,0,1,1,3,0,3,3,0,no
3,0,0,0,0,0,1,1,3,0,3,3,0,no
3,0,0,0,0,0,1,1,3,0,3,3,0,no
3,0,0,0,0,0,1,1,3,0,3,3,0,no
7,5,0,0,0,0,1,1,7,0,7,7,0,no
3,0,0,0,0,0,1,1,3,0,3,3,0,no
3,0,0,0,0,0,1,1,3,0,3,3,0,no
3,0,0,0,0,0,1,1,3,0,3,3,0,no
3,0,0,0,0,0,1,1,3,0,3,3,0,no
3,0,0,0,0,0,1,1,3,0,3,3,0,no
3,0,0,0,0,0,2,2,4,1,3,2.5,0,no
9,1,1,1,0,0,1,1,9,0,9,9,0,no
3,0,0,0,0,0,1,1,3,0,3,3,0,no
3,0,0,0,0,0,1,1,3,0,3,3,0,no
3,0,0,0,0,0,2,2,7,4,7,5.5,0,no
3,0,0,0,0,0,1,1,3,0,3,3,0,no
3,0,0,0,0,0,1,1,3,0,3,3,0,no
3,0,0,0,0,0,1,1,3,0,3,3,0,no
3,0,0,0,0,0,1,1,3,0,3,3,0,no
12,2,2,1,5,0,1,1,12,0,12,12,0,no
38,1,4,2,0,6,1,1,38,0,38,38,0,no
3,1,0,0,0,0,1,1,3,0,3,3,0,no
35,1,6,3,0,6,1,1,35,0,35,35,0,no
4,0,0,0,0,1,1,1,4,0,4,4,0,no
10,0,1,1,0,0,1,1,10,0,10,10,0,no
3,0,0,0,0,0,1,1,3,0,3,3,0,no
13,0,2,1,0,0,2,2,13,0,12,6.5,0,no
15,0,2,1,0,0,2,1,15,0,11,7.5,0,no
3,0,0,0,0,0,1,1,3,0,3,3,0,no
11,0,2,2,0,0,1,1,11,0,11,11,0,no
4,0,0,0,0,0,1,1,4,0,4,4,0,no
4,1,0,0,0,0,1,1,4,0,4,4,0,no
17,0,4,2,0,0,3,1,17,0,12,5.666667,0,no
5,2,0,0,0,0,1,1,5,0,5,5,0,no
3,0,0,0,0,0,2,1,4,1,3,2.5,0,no
3,0,0,0,0,0,1,1,3,0,3,3,0,no
3,0,0,0,0,0,1,1,3,0,3,3,0,no
3,0,0,0,0,0,1,1,3,0,3,3,0,no
3,0,0,0,0,0,2,1,4,1,3,2.5,0,no
7,0,1,1,0,0,2,2,8,1,7,4.5,1,no
3,0,0,0,0,0,1,1,3,0,3,3,0,no
0,0,0,0,1,0,1,1,0,0,0,0,0,no
0,0,0,0,1,0,1,1,0,0,0,0,0,no
0,0,0,0,1,0,1,1,0,0,0,0,0,no
0,0,0,0,1,0,1,1,0,0,0,0,0,no
0,0,0,0,1,0,1,1,0,0,0,0,0,no
0,2,0,0,0,0,0,0,0,0,0,0,0,no
10,5,1,1,0,0,1,1,10,0,10,10,1,no
7,3,1,1,1,0,2,2,8,1,7,4.5,1,no
9,0,2,2,0,0,1,1,9,0,9,9,1,no
0,2,0,0,1,0,1,1,0,0,0,0,1,no
0,5,0,0,0,0,0,0,0,0,0,0,0,no
0,5,0,0,0,0,0,0,0,0,0,0,0,no
2,0,0,0,0,0,1,1,2,0,2,2,1,no
3,0,0,0,0,0,1,1,3,0,3,3,1,no
2,1,0,0,1,0,1,1,2,0,2,2,1,no
18,1,0,0,21,0,7,2,20,2,8,3.142857,1,no
3,1,0,0,0,0,1,1,3,0,3,3,0,no
2,1,0,0,1,0,1,1,2,0,2,2,0,no
13,0,2,2,1,3,1,1,13,0,13,13,0,no
10,0,1,1,1,2,1,1,10,0,10,10,0,no
3,0,0,0,0,0,1,1,3,0,3,3,0,no
3,0,0,0,0,0,1,1,3,0,3,3,0,no
3,0,0,0,2,0,1,1,3,0,3,3,0,no
12,0,2,1,2,1,1,1,12,0,12,12,0,no
3,0,0,0,1,0,1,1,3,0,3,3,0,no
3,0,0,0,0,0,1,1,3,0,3,3,0,no
3,0,0,0,1,0,1,1,3,0,3,3,0,no
7,0,1,1,2,1,1,1,7,0,7,7,0,no
3,0,0,0,0,0,1,1,3,0,3,3,0,no
3,1,0,0,1,0,1,1,3,0,3,3,0,no
3,0,0,0,0,0,1,1,3,0,3,3,0,no
4,1,0,0,2,1,1,1,4,0,4,4,0,no
8,1,1,1,1,1,1,1,8,0,8,8,0,no
8,2,1,1,1,1,1,1,8,0,8,8,0,no
3,1,0,0,1,0,1,1,3,0,3,3,0,no
3,2,0,0,1,0,1,1,3,0,3,3,0,no
3,1,0,0,1,0,1,1,3,0,3,3,0,no
3,2,0,0,1,0,1,1,3,0,3,3,0,no
3,1,0,0,1,0,1,1,3,0,3,3,0,no
3,2,0,0,1,0,1,1,3,0,3,3,0,no
3,1,0,0,1,0,1,1,3,0,3,3,0,no
3,2,0,0,1,0,1,1,3,0,3,3,0,no
3,0,0,0,0,0,1,1,3,0,3,3,0,no
3,0,0,0,2,0,1,1,3,0,3,3,0,no
7,1,1,1,1,0,1,1,7,0,7,7,0,no
3,0,0,0,0,0,1,1,3,0,3,3,0,no
4,1,0,0,0,0,1,1,4,0,4,4,0,no
7,0,1,1,2,1,1,1,7,0,7,7,0,no
7,0,1,1,2,1,1,1,7,0,7,7,0,no
12,0,1,1,6,3,1,1,12,0,12,12,0,no
6,0,0,0,1,0,1,1,6,0,6,6,0,no
6,0,0,0,1,0,1,1,6,0,6,6,0,no
3,0,0,0,1,0,1,1,3,0,3,3,0,no
3,0,0,0,0,0,1,1,3,0,3,3,0,no
10,0,1,1,1,2,1,1,10,0,10,10,0,no
3,0,0,0,2,0,1,1,3,0,3,3,0,no
3,0,0,0,2,0,1,1,3,0,3,3,0,no
3,0,0,0,1,0,1,1,3,0,3,3,0,no
3,0,0,0,1,0,1,1,3,0,3,3,0,no
3,0,0,0,1,0,1,1,3,0,3,3,0,no
3,0,0,0,1,0,1,1,3,0,3,3,0,no
4,0,1,1,1,0,1,1,4,0,4,4,0,no
27,2,5,3,1,2,1,1,27,0,27,27,0,no
8,1,1,1,2,0,1,1,8,0,8,8,0,no
9,1,2,1,3,0,1,1,9,0,9,9,0,no
9,1,1,1,0,0,1,1,9,0,9,9,0,no
5,1,0,0,0,0,1,1,5,0,5,5,0,no
0,0,0,0,0,0,1,1,0,0,0,0,0,no
0,0,0,0,0,0,1,1,0,0,0,0,0,no
3,1,0,0,0,0,1,1,3,0,3,3,0,no
2,1,0,0,1,0,1,1,2,0,2,2,0,no
13,0,2,2,1,3,1,1,13,0,13,13,0,no
10,0,1,1,1,2,1,1,10,0,10,10,0,no
3,0,0,0,0,0,1,1,3,0,3,3,0,no
3,0,0,0,0,0,1,1,3,0,3,3,0,no
3,0,0,0,2,0,1,1,3,0,3,3,0,no
13,0,2,2,1,3,1,1,13,0,13,13,0,no
10,0,1,1,1,2,1,1,10,0,10,10,0,no
13,0,2,2,1,3,1,1,13,0,13,13,0,no
10,0,1,1,1,2,1,1,10,0,10,10,0,no
13,0,2,2,1,3,1,1,13,0,13,13,0,no
10,0,1,1,1,2,1,1,10,0,10,10,0,no
21,0,5,1,5,1,1,1,21,0,21,21,0,no
3,0,0,0,1,0,1,1,3,0,3,3,0,no
3,0,0,0,1,0,1,1,3,0,3,3,0,no
3,0,0,0,1,0,1,1,3,0,3,3,0,no
3,0,0,0,1,0,1,1,3,0,3,3,0,no
6,0,0,0,0,0,1,1,6,0,6,6,0,no
3,0,0,0,1,0,1,1,3,0,3,3,0,no
19,0,4,1,2,1,1,1,19,0,19,19,0,no
3,0,0,0,0,0,1,1,3,0,3,3,0,no
3,1,0,0,1,0,1,1,3,0,3,3,0,no
3,0,0,0,0,0,1,1,3,0,3,3,0,no
4,1,0,0,2,1,1,1,4,0,4,4,0,no
8,1,1,1,1,1,1,1,8,0,8,8,0,no
8,2,1,1,1,1,1,1,8,0,8,8,0,no
3,1,0,0,1,0,1,1,3,0,3,3,0,no
3,2,0,0,1,0,1,1,3,0,3,3,0,no
3,1,0,0,1,0,1,1,3,0,3,3,0,no
3,2,0,0,1,0,1,1,3,0,3,3,0,no
3,1,0,0,1,0,1,1,3,0,3,3,0,no
3,2,0,0,1,0,1,1,3,0,3,3,0,no
3,1,0,0,1,0,1,1,3,0,3,3,0,no
3,2,0,0,1,0,1,1,3,0,3,3,0,no
3,0,0,0,0,0,1,1,3,0,3,3,0,no
3,0,0,0,2,0,1,1,3,0,3,3,0,no
16,1,4,1,4,0,1,1,16,0,16,16,0,no
3,0,0,0,0,0,1,1,3,0,3,3,0,no
4,1,0,0,0,0,1,1,4,0,4,4,0,no
7,0,1,1,2,1,1,1,7,0,7,7,0,no
7,0,1,1,2,1,1,1,7,0,7,7,0,no
24,0,4,1,9,3,1,1,24,0,24,24,0,no
12,0,0,0,4,0,1,1,12,0,12,12,0,no
6,0,0,0,1,0,1,1,6,0,6,6,0,no
6,0,0,0,1,0,1,1,6,0,6,6,0,no
6,0,0,0,1,0,1,1,6,0,6,6,0,no
6,0,0,0,1,0,1,1,6,0,6,6,0,no
3,0,0,0,1,0,1,1,3,0,3,3,0,no
3,0,0,0,0,0,1,1,3,0,3,3,0,no
10,0,1,1,1,2,1,1,10,0,10,10,0,no
3,0,0,0,2,0,1,1,3,0,3,3,0,no
3,0,0,0,2,0,1,1,3,0,3,3,0,no
3,0,0,0,1,0,1,1,3,0,3,3,0,no
10,0,1,1,1,2,1,1,10,0,10,10,0,no
10,0,1,1,1,2,1,1,10,0,10,10,0,no
10,0,1,1,1,2,1,1,10,0,10,10,0,no
3,0,0,0,1,0,1,1,3,0,3,3,0,no
3,0,0,0,1,0,1,1,3,0,3,3,0,no
3,0,0,0,1,0,1,1,3,0,3,3,0,no
3,0,0,0,1,0,1,1,3,0,3,3,0,no
3,0,0,0,1,0,1,1,3,0,3,3,0,no
12,0,3,1,2,0,1,1,12,0,12,12,0,no
4,0,1,1,1,0,1,1,4,0,4,4,0,no
45,2,8,3,1,2,1,1,45,0,45,45,0,no
8,1,1,1,2,0,1,1,8,0,8,8,0,no
18,1,5,1,3,0,1,1,18,0,18,18,0,no
9,1,1,1,0,0,1,1,9,0,9,9,0,no
5,1,0,0,0,0,1,1,5,0,5,5,0,no
9,1,1,1,0,0,1,1,9,0,9,9,0,no
5,1,0,0,0,0,1,1,5,0,5,5,0,no
9,1,1,1,0,0,1,1,9,0,9,9,0,no
5,1,0,0,0,0,1,1,5,0,5,5,0,no
9,1,1,1,0,0,1,1,9,0,9,9,0,no
5,1,0,0,0,0,1,1,5,0,5,5,0,no
0,0,0,0,0,0,1,1,0,0,0,0,0,no
0,0,0,0,0,0,1,1,0,0,0,0,0,no
0,0,0,0,0,0,1,1,0,0,0,0,0,no
0,0,0,0,0,0,1,1,0,0,0,0,0,no
0,0,0,0,0,0,1,1,0,0,0,0,0,no
0,0,0,0,0,0,1,1,0,0,0,0,0,no
0,0,0,0,0,0,1,1,0,0,0,0,0,no
0,0,0,0,0,0,1,1,0,0,0,0,0,no
3,1,0,0,0,0,1,1,3,0,3,3,1,no
2,1,0,0,1,0,1,1,2,0,2,2,1,no
3,0,0,0,0,0,1,1,3,0,3,3,0,no
3,0,0,0,0,0,1,1,3,0,3,3,1,no
3,0,0,0,0,0,1,1,3,0,3,3,1,no
3,0,0,0,2,0,1,1,3,0,3,3,1,no
3,0,0,0,1,0,1,1,3,0,3,3,0,no
3,0,0,0,0,0,1,1,3,0,3,3,1,no
3,0,0,0,0,0,1,1,3,0,3,3,1,no
3,0,0,0,0,0,1,1,3,0,3,3,1,no
3,0,0,0,0,0,1,1,3,0,3,3,0,no
3,0,0,0,0,0,1,1,3,0,3,3,1,no
3,1,0,0,1,0,1,1,3,0,3,3,1,no
3,0,0,0,0,0,1,1,3,0,3,3,1,no
3,0,0,0,1,0,1,1,3,0,3,3,1,no
3,1,0,0,1,0,1,1,3,0,3,3,1,no
3,0,0,0,1,0,1,1,3,0,3,3,1,no
36,0,10,1,9,2,3,2,36,0,27,12,1,no
3,0,0,0,1,0,1,1,3,0,3,3,1,no
3,0,0,0,1,0,1,1,3,0,3,3,0,no
3,0,0,0,1,0,1,1,3,0,3,3,0,no
3,0,0,0,1,0,1,1,3,0,3,3,1,no
3,0,0,0,1,0,1,1,3,0,3,3,1,no
3,0,0,0,1,0,1,1,3,0,3,3,1,no
3,0,0,0,1,0,1,1,3,0,3,3,0,no
3,0,0,0,1,0,1,1,3,0,3,3,1,no
3,0,0,0,1,0,1,1,3,0,3,3,1,no
11,0,0,0,2,0,3,2,11,0,8,3.666667,1,no
3,0,0,0,1,0,1,1,3,0,3,3,1,no
29,0,7,2,2,2,1,1,29,0,29,29,1,no
3,0,0,0,0,0,1,1,3,0,3,3,1,no
3,1,0,0,1,0,1,1,3,0,3,3,1,no
3,0,0,0,0,0,1,1,3,0,3,3,1,no
4,1,0,0,2,1,1,1,4,0,4,4,1,no
8,1,1,1,1,1,1,1,8,0,8,8,1,no
8,2,1,1,1,1,1,1,8,0,8,8,1,no
3,1,0,0,1,0,1,1,3,0,3,3,1,no
3,2,0,0,1,0,1,1,3,0,3,3,1,no
3,1,0,0,1,0,1,1,3,0,3,3,1,no
3,2,0,0,1,0,1,1,3,0,3,3,1,no
3,1,0,0,1,0,1,1,3,0,3,3,1,no
3,2,0,0,1,0,1,1,3,0,3,3,1,no
3,1,0,0,1,0,1,1,3,0,3,3,1,no
3,2,0,0,1,0,1,1,3,0,3,3,1,no
3,0,0,0,0,0,1,1,3,0,3,3,1,no
3,0,0,0,2,0,1,1,3,0,3,3,1,no
31,1,9,1,8,1,3,2,31,0,22,10.333333,1,no
3,0,0,0,0,0,1,1,3,0,3,3,1,no
4,1,0,0,0,0,1,1,4,0,4,4,1,no
10,1,1,1,2,0,1,1,10,0,10,10,1,no
13,2,2,2,1,0,1,1,13,0,13,13,1,no
10,2,1,1,1,0,1,1,10,0,10,10,1,no
13,1,2,2,1,0,1,1,13,0,13,13,1,no
10,1,1,1,1,0,1,1,10,0,10,10,1,no
3,0,0,0,2,0,1,1,3,0,3,3,1,no
3,1,0,0,2,0,1,1,3,0,3,3,1,no
7,0,1,1,2,1,1,1,7,0,7,7,1,no
7,0,1,1,2,1,1,1,7,0,7,7,1,no
49,0,10,2,15,3,3,2,49,0,37,16.333333,1,no
26,0,1,1,11,0,3,2,26,0,20,8.666667,1,no
6,0,0,0,1,0,1,1,6,0,6,6,0,no
6,0,0,0,2,0,1,1,6,0,6,6,0,no
6,0,0,0,1,0,1,1,6,0,6,6,1,no
6,0,0,0,1,0,1,1,6,0,6,6,1,no
6,0,0,0,1,0,1,1,6,0,6,6,1,no
6,0,0,0,1,0,1,1,6,0,6,6,0,no
6,0,0,0,1,0,1,1,6,0,6,6,1,no
10,0,1,1,1,0,1,1,10,0,10,10,1,no
6,0,0,0,2,0,1,1,6,0,6,6,1,no
3,0,0,0,1,0,1,1,3,0,3,3,1,no
3,0,0,0,0,0,1,1,3,0,3,3,1,no
6,0,1,1,2,0,1,1,6,0,6,6,1,no
3,0,0,0,0,0,1,1,3,0,3,3,0,no
3,0,0,0,2,0,1,1,3,0,3,3,1,no
3,0,0,0,2,0,1,1,3,0,3,3,1,no
3,0,0,0,1,0,1,1,3,0,3,3,1,no
3,0,0,0,1,0,1,1,3,0,3,3,0,no
3,0,0,0,0,0,1,1,3,0,3,3,1,no
3,0,0,0,0,0,1,1,3,0,3,3,1,no
3,0,0,0,0,0,1,1,3,0,3,3,1,no
3,0,0,0,0,0,1,1,3,0,3,3,0,no
3,0,0,0,0,0,1,1,3,0,3,3,1,no
7,1,1,1,1,0,1,1,7,0,7,7,1,no
3,1,0,0,1,0,1,1,3,0,3,3,1,no
3,0,0,0,1,0,1,1,3,0,3,3,1,no
7,0,1,1,0,0,1,1,7,0,7,7,1,no
7,0,1,1,7,0,1,1,7,0,7,7,1,no
7,0,1,1,1,0,1,1,7,0,7,7,1,no
7,1,1,1,1,0,1,1,7,0,7,7,1,no
7,0,1,1,1,0,1,1,7,0,7,7,1,no
3,0,0,0,1,0,1,1,3,0,3,3,1,no
3,0,0,0,1,0,1,1,3,0,3,3,0,no
3,0,0,0,1,0,1,1,3,0,3,3,0,no
3,0,0,0,1,0,1,1,3,0,3,3,1,no
3,0,0,0,1,0,1,1,3,0,3,3,1,no
3,0,0,0,1,0,1,1,3,0,3,3,1,no
3,0,0,0,1,0,1,1,3,0,3,3,0,no
3,0,0,0,1,0,1,1,3,0,3,3,1,no
3,0,0,0,1,0,1,1,3,0,3,3,1,no
3,0,0,0,1,0,1,1,3,0,3,3,1,no
20,0,6,2,1,1,1,1,20,0,20,20,1,no
5,0,1,1,0,0,1,1,5,0,5,5,1,no
88,2,15,3,7,7,3,2,88,0,64,29.333333,1,no
8,1,1,1,2,0,1,1,8,0,8,8,1,no
54,1,15,3,5,0,3,2,54,0,45,18,1,no
10,1,1,1,0,0,1,1,10,0,10,10,1,no
6,1,0,0,0,0,1,1,6,0,6,6,0,no
9,1,1,1,1,0,1,1,9,0,9,9,0,no
6,1,0,0,0,0,1,1,6,0,6,6,1,no
6,1,0,0,0,0,1,1,6,0,6,6,1,no
6,1,0,0,0,0,1,1,6,0,6,6,1,no
9,1,1,1,0,0,1,1,9,0,9,9,0,no
6,1,0,0,0,0,1,1,6,0,6,6,1,no
13,2,2,2,1,0,1,1,13,0,13,13,1,no
10,2,1,1,1,0,1,1,10,0,10,10,1,no
9,1,1,1,1,0,1,1,9,0,9,9,1,no
4,2,0,0,1,0,1,1,4,0,4,4,0,no
3,0,0,0,1,0,1,1,3,0,3,3,0,no
3,0,0,0,0,0,1,1,3,0,3,3,0,no
3,0,0,0,0,0,1,1,3,0,3,3,0,no
3,0,0,0,0,0,1,1,3,0,3,3,0,no
3,0,0,0,0,0,1,1,3,0,3,3,0,no
6,1,1,1,1,0,1,1,6,0,6,6,0,no
10,1,3,1,0,0,1,1,10,0,10,10,0,no
3,1,0,0,0,0,1,1,3,0,3,3,0,no
3,1,0,0,0,0,1,1,3,0,3,3,1,no
2,1,0,0,1,0,1,1,2,0,2,2,1,no
3,0,0,0,0,0,1,1,3,0,3,3,1,no
3,0,0,0,0,0,1,1,3,0,3,3,1,no
3,0,0,0,2,0,1,1,3,0,3,3,1,no
3,1,0,0,0,0,1,1,3,0,3,3,1,no
3,0,0,0,0,0,1,1,3,0,3,3,1,no
3,0,0,0,0,0,1,1,3,0,3,3,1,no
3,0,0,0,0,0,1,1,3,0,3,3,1,no
20,0,3,1,2,3,1,1,20,0,20,20,1,no
3,0,0,0,1,0,1,1,3,0,3,3,1,no
4,0,0,0,0,0,1,1,4,0,4,4,1,no
3,0,0,0,1,0,1,1,3,0,3,3,1,no
11,0,2,1,2,1,1,1,11,0,11,11,1,no
3,0,0,0,0,0,1,1,3,0,3,3,1,no
3,1,0,0,1,0,1,1,3,0,3,3,1,no
3,0,0,0,0,0,1,1,3,0,3,3,1,no
4,1,0,0,2,1,1,1,4,0,4,4,1,no
8,1,1,1,1,1,1,1,8,0,8,8,1,no
8,2,1,1,1,1,1,1,8,0,8,8,1,no
3,1,0,0,1,0,1,1,3,0,3,3,1,no
3,2,0,0,1,0,1,1,3,0,3,3,1,no
3,1,0,0,1,0,1,1,3,0,3,3,1,no
3,2,0,0,1,0,1,1,3,0,3,3,1,no
3,1,0,0,1,0,1,1,3,0,3,3,1,no
3,2,0,0,1,0,1,1,3,0,3,3,1,no
3,1,0,0,1,0,1,1,3,0,3,3,1,no
3,2,0,0,1,0,1,1,3,0,3,3,1,no
3,0,0,0,0,0,1,1,3,0,3,3,1,no
3,0,0,0,2,0,1,1,3,0,3,3,1,no
10,1,2,1,1,1,1,1,10,0,10,10,1,no
3,0,0,0,0,0,1,1,3,0,3,3,1,no
4,1,0,0,0,0,1,1,4,0,4,4,1,no
6,1,0,0,1,0,1,1,6,0,6,6,1,no
9,1,1,1,0,0,1,1,9,0,9,9,1,no
5,1,0,0,0,0,1,1,5,0,5,5,1,no
7,0,1,1,2,1,1,1,7,0,7,7,1,no
7,0,1,1,2,1,1,1,7,0,7,7,1,no
17,0,2,1,8,3,1,1,17,0,17,17,1,no
8,0,0,0,2,0,1,1,8,0,8,8,1,no
6,0,0,0,1,0,1,1,6,0,6,6,1,no
6,0,0,0,1,0,1,1,6,0,6,6,1,no
3,0,0,0,1,0,1,1,3,0,3,3,1,no
3,0,0,0,0,0,1,1,3,0,3,3,1,no
6,0,1,1,1,0,1,1,6,0,6,6,1,no
3,0,0,0,2,0,1,1,3,0,3,3,1,no
3,0,0,0,2,0,1,1,3,0,3,3,1,no
3,0,0,0,1,0,1,1,3,0,3,3,1,no
3,1,0,0,0,0,1,1,3,0,3,3,1,no
3,0,0,0,0,0,1,1,3,0,3,3,1,no
3,0,0,0,0,0,1,1,3,0,3,3,1,no
3,0,0,0,0,0,1,1,3,0,3,3,1,no
3,0,0,0,1,0,1,1,3,0,3,3,1,no
3,0,0,0,1,0,1,1,3,0,3,3,1,no
6,0,1,1,2,0,1,1,6,0,6,6,1,no
4,0,1,1,1,0,1,1,4,0,4,4,1,no
33,2,6,3,1,2,1,1,33,0,33,33,1,no
8,1,1,1,2,0,1,1,8,0,8,8,1,no
19,1,4,2,4,0,1,1,19,0,19,19,1,no
9,2,1,1,0,0,1,1,9,0,9,9,1,no
6,1,0,0,0,0,1,1,6,0,6,6,1,no
0,1,0,0,0,0,1,1,0,0,0,0,1,no
0,0,0,0,0,0,1,1,0,0,0,0,1,no
0,0,0,0,0,0,1,1,0,0,0,0,1,no
0,0,0,0,0,0,1,1,0,0,0,0,1,no
0,0,0,0,0,0,1,1,0,0,0,0,1,no
4,2,0,0,1,0,1,1,4,0,4,4,1,no
3,0,0,0,1,0,1,1,3,0,3,3,1,no
3,0,0,0,0,0,1,1,3,0,3,3,1,no
3,0,0,0,0,0,1,1,3,0,3,3,1,no
3,0,0,0,0,0,1,1,3,0,3,3,1,no
3,0,0,0,0,0,1,1,3,0,3,3,1,no
6,1,1,1,1,0,1,1,6,0,6,6,1,no
12,1,4,1,0,0,1,1,12,0,12,12,1,no
3,1,0,0,0,0,1,1,3,0,3,3,1,no
0,0,0,0,0,0,1,1,0,0,0,0,0,no
0,0,0,0,1,0,1,1,0,0,0,0,0,no
0,0,0,0,0,0,1,1,0,0,0,0,1,no
0,0,0,0,0,0,1,1,0,0,0,0,1,no
0,0,0,0,0,0,1,1,0,0,0,0,1,no
0,0,0,0,0,0,1,1,0,0,0,0,0,no
0,0,0,0,0,0,1,1,0,0,0,0,1,no
0,1,0,0,1,0,1,1,0,0,0,0,1,no
0,0,0,0,0,0,1,1,0,0,0,0,1,no
0,0,0,0,1,0,1,1,0,0,0,0,1,no
0,1,0,0,1,0,1,1,0,0,0,0,1,no
0,0,0,0,1,0,1,1,0,0,0,0,1,no
0,0,0,0,1,0,1,1,0,0,0,0,1,no
0,0,0,0,0,0,1,1,0,0,0,0,0,no
0,0,0,0,0,0,1,1,0,0,0,0,0,no
0,0,0,0,0,0,1,1,0,0,0,0,1,no
0,0,0,0,0,0,1,1,0,0,0,0,1,no
0,0,0,0,0,0,1,1,0,0,0,0,1,no
0,0,0,0,0,0,1,1,0,0,0,0,0,no
0,0,0,0,0,0,1,1,0,0,0,0,1,no
0,0,0,0,0,0,1,1,0,0,0,0,1,no
3,1,0,0,0,0,1,1,3,0,3,3,0,no
2,1,0,0,1,0,1,1,2,0,2,2,0,no
3,0,0,0,0,0,1,1,3,0,3,3,0,no
3,0,0,0,0,0,1,1,3,0,3,3,0,no
3,0,0,0,2,0,1,1,3,0,3,3,0,no
15,0,3,1,3,1,1,1,15,0,15,15,0,no
13,0,2,2,1,3,1,1,13,0,13,13,0,no
10,0,1,1,1,2,1,1,10,0,10,10,0,no
3,0,0,0,0,0,1,1,3,0,3,3,0,no
3,0,0,0,1,0,1,1,3,0,3,3,0,no
3,0,0,0,1,0,1,1,3,0,3,3,0,no
4,0,0,0,0,0,1,1,4,0,4,4,0,no
3,0,0,0,1,0,1,1,3,0,3,3,0,no
15,0,3,1,2,1,1,1,15,0,15,15,0,no
3,0,0,0,0,0,1,1,3,0,3,3,0,no
3,1,0,0,1,0,1,1,3,0,3,3,0,no
3,0,0,0,0,0,1,1,3,0,3,3,0,no
4,1,0,0,2,1,1,1,4,0,4,4,0,no
8,1,1,1,1,1,1,1,8,0,8,8,0,no
8,2,1,1,1,1,1,1,8,0,8,8,0,no
3,1,0,0,1,0,1,1,3,0,3,3,0,no
3,2,0,0,1,0,1,1,3,0,3,3,0,no
3,1,0,0,1,0,1,1,3,0,3,3,0,no
3,2,0,0,1,0,1,1,3,0,3,3,0,no
3,1,0,0,1,0,1,1,3,0,3,3,0,no
3,2,0,0,1,0,1,1,3,0,3,3,0,no
3,1,0,0,1,0,1,1,3,0,3,3,0,no
3,2,0,0,1,0,1,1,3,0,3,3,0,no
3,0,0,0,0,0,1,1,3,0,3,3,0,no
3,0,0,0,2,0,1,1,3,0,3,3,0,no
10,1,2,1,2,0,1,1,10,0,10,10,0,no
3,0,0,0,0,0,1,1,3,0,3,3,0,no
4,1,0,0,0,0,1,1,4,0,4,4,0,no
7,0,1,1,2,1,1,1,7,0,7,7,0,no
7,0,1,1,2,1,1,1,7,0,7,7,0,no
16,0,2,1,7,3,1,1,16,0,16,16,0,no
8,0,0,0,2,0,1,1,8,0,8,8,0,no
6,0,0,0,1,0,1,1,6,0,6,6,0,no
6,0,0,0,1,0,1,1,6,0,6,6,0,no
3,0,0,0,1,0,1,1,3,0,3,3,0,no
3,0,0,0,0,0,1,1,3,0,3,3,0,no
3,0,0,0,2,0,1,1,3,0,3,3,0,no
3,0,0,0,2,0,1,1,3,0,3,3,0,no
3,0,0,0,1,0,1,1,3,0,3,3,0,no
10,0,1,1,1,2,1,1,10,0,10,10,0,no
3,0,0,0,0,0,1,1,3,0,3,3,0,no
3,0,0,0,1,0,1,1,3,0,3,3,0,no
3,0,0,0,1,0,1,1,3,0,3,3,0,no
3,0,0,0,1,0,1,1,3,0,3,3,0,no
9,0,2,1,2,0,1,1,9,0,9,9,0,no
4,0,1,1,1,0,1,1,4,0,4,4,0,no
33,2,6,3,1,2,1,1,33,0,33,33,0,no
8,1,1,1,2,0,1,1,8,0,8,8,0,no
12,1,3,1,3,0,1,1,12,0,12,12,0,no
9,1,1,1,0,0,1,1,9,0,9,9,0,no
5,1,0,0,0,0,1,1,5,0,5,5,0,no
6,1,0,0,0,0,1,1,6,0,6,6,0,no
0,0,0,0,0,0,1,1,0,0,0,0,0,no
0,0,0,0,0,0,1,1,0,0,0,0,0,no
0,0,0,0,0,0,1,1,0,0,0,0,0,no
0,0,0,0,0,0,1,1,0,0,0,0,0,no
3,1,0,0,0,0,1,1,3,0,3,3,0,no
2,1,0,0,1,0,1,1,2,0,2,2,0,no
13,0,2,2,1,3,1,1,13,0,13,13,0,no
10,0,1,1,1,2,1,1,10,0,10,10,0,no
3,0,0,0,0,0,1,1,3,0,3,3,0,no
3,0,0,0,0,0,1,1,3,0,3,3,0,no
3,0,0,0,2,0,1,1,3,0,3,3,0,no
12,0,2,1,2,1,1,1,12,0,12,12,0,no
3,0,0,0,1,0,1,1,3,0,3,3,0,no
3,0,0,0,0,0,1,1,3,0,3,3,0,no
3,0,0,0,1,0,1,1,3,0,3,3,0,no
7,0,1,1,2,1,1,1,7,0,7,7,0,no
3,0,0,0,0,0,1,1,3,0,3,3,0,no
3,1,0,0,1,0,1,1,3,0,3,3,0,no
3,0,0,0,0,0,1,1,3,0,3,3,0,no
4,1,0,0,2,1,1,1,4,0,4,4,0,no
8,1,1,1,1,1,1,1,8,0,8,8,0,no
8,2,1,1,1,1,1,1,8,0,8,8,0,no
3,1,0,0,1,0,1,1,3,0,3,3,0,no
3,2,0,0,1,0,1,1,3,0,3,3,0,no
3,1,0,0,1,0,1,1,3,0,3,3,0,no
3,2,0,0,1,0,1,1,3,0,3,3,0,no
3,1,0,0,1,0,1,1,3,0,3,3,0,no
3,2,0,0,1,0,1,1,3,0,3,3,0,no
3,1,0,0,1,0,1,1,3,0,3,3,0,no
3,2,0,0,1,0,1,1,3,0,3,3,0,no
3,0,0,0,0,0,1,1,3,0,3,3,0,no
3,0,0,0,2,0,1,1,3,0,3,3,0,no
7,1,1,1,1,0,1,1,7,0,7,7,0,no
3,0,0,0,0,0,1,1,3,0,3,3,0,no
4,1,0,0,0,0,1,1,4,0,4,4,0,no
7,0,1,1,2,1,1,1,7,0,7,7,0,no
7,0,1,1,2,1,1,1,7,0,7,7,0,no
12,0,1,1,6,3,1,1,12,0,12,12,0,no
6,0,0,0,1,0,1,1,6,0,6,6,0,no
6,0,0,0,1,0,1,1,6,0,6,6,0,no
3,0,0,0,1,0,1,1,3,0,3,3,0,no
3,0,0,0,0,0,1,1,3,0,3,3,0,no
10,0,1,1,1,2,1,1,10,0,10,10,0,no
3,0,0,0,2,0,1,1,3,0,3,3,0,no
3,0,0,0,2,0,1,1,3,0,3,3,0,no
3,0,0,0,1,0,1,1,3,0,3,3,0,no
3,0,0,0,1,0,1,1,3,0,3,3,0,no
3,0,0,0,1,0,1,1,3,0,3,3,0,no
3,0,0,0,1,0,1,1,3,0,3,3,0,no
4,0,1,1,1,0,1,1,4,0,4,4,0,no
27,2,5,3,1,2,1,1,27,0,27,27,0,no
8,1,1,1,2,0,1,1,8,0,8,8,0,no
9,1,2,1,3,0,1,1,9,0,9,9,0,no
9,1,1,1,0,0,1,1,9,0,9,9,0,no
5,1,0,0,0,0,1,1,5,0,5,5,0,no
0,0,0,0,0,0,1,1,0,0,0,0,0,no
0,0,0,0,0,0,1,1,0,0,0,0,0,no
3,1,0,0,0,0,1,1,3,0,3,3,0,no
2,1,0,0,1,0,1,1,2,0,2,2,0,no
3,0,0,0,0,0,1,1,3,0,3,3,0,no
3,0,0,0,0,0,1,1,3,0,3,3,0,no
3,0,0,0,2,0,1,1,3,0,3,3,0,no
3,1,0,0,0,0,1,1,3,0,3,3,0,no
3,0,0,0,0,0,1,1,3,0,3,3,0,no
3,0,0,0,0,0,1,1,3,0,3,3,0,no
17,0,2,1,1,3,1,1,17,0,17,17,0,no
3,0,0,0,0,0,1,1,3,0,3,3,0,no
3,0,0,0,1,0,1,1,3,0,3,3,0,no
7,0,1,1,2,1,1,1,7,0,7,7,0,no
3,0,0,0,0,0,1,1,3,0,3,3,0,no
3,1,0,0,1,0,1,1,3,0,3,3,0,no
3,0,0,0,0,0,1,1,3,0,3,3,0,no
4,1,0,0,2,1,1,1,4,0,4,4,0,no
8,1,1,1,1,1,1,1,8,0,8,8,0,no
8,2,1,1,1,1,1,1,8,0,8,8,0,no
3,1,0,0,1,0,1,1,3,0,3,3,0,no
3,2,0,0,1,0,1,1,3,0,3,3,0,no
3,1,0,0,1,0,1,1,3,0,3,3,0,no
3,2,0,0,1,0,1,1,3,0,3,3,0,no
3,1,0,0,1,0,1,1,3,0,3,3,0,no
3,2,0,0,1,0,1,1,3,0,3,3,0,no
3,1,0,0,1,0,1,1,3,0,3,3,0,no
3,2,0,0,1,0,1,1,3,0,3,3,0,no
3,0,0,0,0,0,1,1,3,0,3,3,0,no
3,0,0,0,2,0,1,1,3,0,3,3,0,no
7,1,1,1,0,1,1,1,7,0,7,7,0,no
3,0,0,0,0,0,1,1,3,0,3,3,0,no
4,1,0,0,0,0,1,1,4,0,4,4,0,no
6,1,0,0,1,0,1,1,6,0,6,6,0,no
9,1,1,1,0,0,1,1,9,0,9,9,0,no
5,1,0,0,0,0,1,1,5,0,5,5,0,no
7,0,1,1,2,1,1,1,7,0,7,7,0,no
7,0,1,1,2,1,1,1,7,0,7,7,0,no
11,0,1,1,7,2,1,1,11,0,11,11,0,no
6,0,0,0,1,0,1,1,6,0,6,6,0,no
6,0,0,0,1,0,1,1,6,0,6,6,0,no
3,0,0,0,1,0,1,1,3,0,3,3,0,no
3,0,0,0,0,0,1,1,3,0,3,3,0,no
6,0,1,1,1,0,1,1,6,0,6,6,0,no
3,0,0,0,2,0,1,1,3,0,3,3,0,no
3,0,0,0,2,0,1,1,3,0,3,3,0,no
3,0,0,0,1,0,1,1,3,0,3,3,0,no
3,1,0,0,0,0,1,1,3,0,3,3,0,no
3,0,0,0,0,0,1,1,3,0,3,3,0,no
3,0,0,0,0,0,1,1,3,0,3,3,0,no
3,0,0,0,1,0,1,1,3,0,3,3,0,no
3,0,0,0,1,0,1,1,3,0,3,3,0,no
4,0,1,1,1,0,1,1,4,0,4,4,0,no
27,2,5,3,1,2,1,1,27,0,27,27,0,no
8,1,1,1,2,0,1,1,8,0,8,8,0,no
16,1,3,2,4,0,1,1,16,0,16,16,0,no
9,2,1,1,0,0,1,1,9,0,9,9,0,no
0,1,0,0,0,0,1,1,0,0,0,0,0,no
0,0,0,0,0,0,1,1,0,0,0,0,0,no
0,0,0,0,0,0,1,1,0,0,0,0,0,no
3,1,0,0,0,0,2,2,4,1,3,2.5,0,no
8,2,1,1,1,0,2,2,8,0,5,4,0,no
3,2,0,0,0,0,2,2,4,1,3,2.5,0,no
2,0,0,0,1,0,0,0,0,0,0,0,0,no
5,0,1,1,1,0,0,0,0,0,0,0,0,no
3,0,0,0,0,0,0,0,0,0,0,0,0,no
3,0,0,0,0,0,0,0,0,0,0,0,0,no
3,0,1,0,0,0,0,0,0,0,0,0,0,no
3,0,0,0,0,0,0,0,0,0,0,0,0,no
3,0,0,0,0,0,0,0,0,0,0,0,0,no
3,0,0,0,0,0,0,0,0,0,0,0,0,no
3,0,0,0,0,0,0,0,0,0,0,0,0,no
4,0,0,0,0,0,0,0,0,0,0,0,0,no
3,0,0,0,0,0,0,0,0,0,0,0,0,no
3,0,0,0,0,0,0,0,0,0,0,0,0,no
7,0,0,0,0,1,1,1,0,5,5,5,1,no
11,1,2,1,0,1,1,1,1,1,2,2,1,no
12,3,0,0,0,1,2,1,13,1,13,7,0,no
7,1,1,1,2,3,1,1,7,0,7,7,0,no
3,0,0,0,0,0,1,1,3,0,3,3,0,no
76,0,10,4,3,9,2,2,76,0,72,38,1,no
3,0,0,0,0,0,1,1,3,0,3,3,0,no
11,0,1,1,0,4,2,1,11,0,8,5.5,0,no
6,2,1,1,1,1,1,1,6,0,6,6,0,no
18,2,4,1,0,1,2,1,18,0,16,9,0,no
3,0,0,0,0,0,2,1,4,1,3,2.5,0,no
14,2,3,2,3,1,1,1,14,0,14,14,0,no
17,0,3,2,0,0,3,1,18,1,14,6.333333,0,no
60,0,13,3,2,1,3,1,60,0,31,20,0,no
33,0,6,2,2,4,4,2,35,2,32,9.25,1,no
14,0,1,1,0,0,1,1,14,0,14,14,0,no
7,0,1,1,0,1,1,1,7,0,7,7,0,no
4,3,0,0,0,0,1,1,4,0,4,4,0,no
42,2,8,3,3,1,2,2,42,0,38,21,1,no
5,0,0,0,0,0,2,1,19,0,16,9.5,0,no
23,0,5,2,2,4,2,1,19,0,16,9.5,0,no
23,0,7,2,1,0,2,1,19,0,16,9.5,0,no
19,0,4,1,1,0,2,1,19,0,16,9.5,0,no
5,1,0,0,0,1,1,1,5,0,5,5,0,no
4,2,0,0,0,0,1,1,4,0,4,4,0,no
31,2,9,3,0,3,2,1,36,5,36,20.5,0,no
14,3,0,0,0,0,1,1,14,0,14,14,0,no
21,0,6,3,2,0,1,1,21,0,21,21,0,no
6,0,1,1,0,1,2,1,6,0,5,3,0,no
3,1,0,0,0,0,1,1,3,0,3,3,0,no
6,0,1,1,0,0,2,1,7,1,6,4,0,no
13,0,2,1,0,0,2,1,18,5,18,11.5,0,no
4,0,0,0,0,0,1,1,4,0,4,4,0,no
42,0,7,3,1,7,2,2,42,0,39,21,1,no
19,0,4,2,2,0,1,1,19,0,19,19,0,no
15,0,4,2,2,0,1,1,15,0,15,15,0,no
37,0,7,3,1,6,2,2,37,0,34,18.5,1,no
3,1,0,0,0,0,1,1,3,0,3,3,0,no
6,2,2,0,2,3,1,1,6,0,6,6,0,no
4,1,0,0,0,1,1,1,4,0,4,4,0,no
8,1,2,2,0,0,3,1,11,3,10,4.666667,0,no
18,1,1,1,0,1,3,2,19,1,17,6.666667,1,no
3,0,0,0,0,0,1,1,3,0,3,3,0,no
3,0,0,0,0,0,1,1,3,0,3,3,0,no
3,0,0,0,0,0,1,1,3,0,3,3,0,no
12,2,2,1,5,0,1,1,12,0,12,12,0,no
28,1,2,1,0,2,1,1,28,0,28,28,0,no
24,1,5,3,0,5,1,1,24,0,24,24,0,no
4,0,0,0,0,1,1,1,4,0,4,4,0,no
3,0,0,0,0,0,1,1,3,0,3,3,0,no
24,1,3,1,0,0,4,2,24,0,18,6,0,yes
6,0,0,0,0,0,3,1,7,1,5,2.666667,0,no
4,0,0,0,0,0,1,1,4,0,4,4,0,no
8,1,1,1,0,0,1,1,8,0,8,8,1,no
5,1,0,0,0,0,1,1,5,0,5,5,0,no
13,0,3,2,0,0,1,1,13,0,13,13,0,no
3,1,0,0,0,0,1,1,3,0,3,3,0,no
43,0,5,3,1,7,3,2,46,3,46,16.333333,1,no
11,3,2,2,0,2,1,1,11,0,11,11,0,no
4,3,0,0,0,0,1,1,4,0,4,4,0,no
18,2,3,3,1,3,3,2,21,3,21,8,1,no
12,2,3,3,1,2,3,2,15,3,15,6,1,no
4,0,0,0,0,0,1,1,4,0,4,4,0,no
4,2,0,0,0,0,1,1,4,0,4,4,0,no
3,1,0,0,0,0,1,1,3,0,3,3,0,no
3,2,0,0,0,0,1,1,3,0,3,3,0,no
3,2,0,0,0,0,1,1,3,0,3,3,0,no
3,1,0,0,0,0,1,1,3,0,3,3,0,no
3,2,0,0,0,0,1,1,3,0,3,3,0,no
3,1,0,0,0,0,1,1,3,0,3,3,0,no
3,2,0,0,0,0,1,1,3,0,3,3,0,no
13,3,0,0,0,1,2,1,14,1,13,7.5,0,no
45,1,9,3,0,5,2,2,45,0,43,22.5,1,yes
6,1,0,0,1,2,1,1,6,0,6,6,0,no
3,0,0,0,0,0,1,1,3,0,3,3,0,no
9,2,2,2,1,2,1,1,9,0,9,9,0,no
53,0,11,3,4,5,3,1,54,1,50,18.333333,0,no
22,0,4,2,0,0,3,2,46,24,45,23.333333,0,yes
30,0,5,1,0,0,6,2,31,1,23,5.333333,0,yes
3,0,0,0,0,0,1,1,3,0,3,3,0,no
38,0,9,3,0,3,2,2,38,0,36,19,1,yes
4,2,0,0,0,0,1,1,4,0,4,4,0,no
4,0,0,0,0,0,1,1,4,0,4,4,0,no
8,1,0,0,0,0,0,0,0,0,0,0,0,no
8,2,0,0,0,0,0,0,0,0,0,0,0,no
2,0,0,0,0,0,0,0,0,0,0,0,0,no
11,0,2,1,1,2,0,0,0,0,0,0,0,no
14,1,2,1,0,3,0,0,0,0,0,0,0,no
14,3,2,1,0,3,0,0,0,0,0,0,0,no
23,0,4,2,0,3,0,0,0,0,0,0,0,no
5,1,0,0,0,0,0,0,0,0,0,0,0,no
5,2,0,0,0,0,0,0,0,0,0,0,0,no
3,0,0,0,0,0,0,0,0,0,0,0,0,no
15,0,3,2,2,1,0,0,0,0,0,0,0,no
10,1,2,2,0,0,0,0,0,0,0,0,0,no
14,1,3,2,0,0,0,0,0,0,0,0,0,no
7,3,1,1,0,0,0,0,0,0,0,0,0,no
5,1,0,0,0,1,0,0,0,0,0,0,0,no
25,1,4,2,0,6,2,1,2,2,2,2,0,no
4,1,0,0,0,0,1,1,4,0,4,4,0,no
11,1,4,1,4,0,1,1,11,0,11,11,0,no
16,1,3,2,0,4,1,1,16,0,16,16,0,no
3,0,0,0,0,0,1,1,3,0,3,3,0,no
13,1,2,1,2,2,1,1,13,0,13,13,0,no
4,1,0,0,0,0,1,1,4,0,4,4,0,no
5,1,1,1,0,0,1,1,5,0,5,5,0,no
3,1,0,0,0,0,1,1,3,0,3,3,0,no
3,1,0,0,0,0,1,1,3,0,3,3,0,no
0,1,0,0,0,0,1,1,0,0,0,0,0,no
0,1,0,0,0,0,1,1,0,0,0,0,0,no
15,2,1,1,1,4,1,1,15,0,15,15,0,no
3,1,0,0,0,0,1,1,3,0,3,3,0,no
3,0,0,0,0,0,1,1,3,0,3,3,0,no
25,2,6,3,2,4,2,2,26,1,25,13.5,1,no
3,3,0,0,0,0,1,1,3,0,3,3,0,no
45,4,10,3,2,7,2,2,46,1,45,23.5,1,no
5,5,2,0,0,2,1,1,5,0,5,5,0,no
41,1,8,2,3,8,2,2,42,1,41,21.5,1,no
3,3,0,0,0,0,1,1,3,0,3,3,0,no
3,0,0,0,0,0,1,1,3,0,3,3,0,no
12,0,3,3,0,1,1,1,12,0,12,12,0,no
24,1,4,3,0,5,2,2,25,1,24,13,1,no
9,3,2,1,0,2,1,1,9,0,9,9,0,no
3,0,0,0,0,0,1,1,3,0,3,3,0,no
6,1,0,0,0,1,1,1,6,0,6,6,0,no
10,2,0,0,0,2,1,1,10,0,10,10,0,no
7,2,0,0,0,1,1,1,7,0,7,7,0,no
3,1,0,0,0,0,1,1,3,0,3,3,0,no
9,3,2,1,0,2,1,1,9,0,9,9,0,no
3,0,0,0,0,0,1,1,3,0,3,3,0,no
6,1,0,0,0,1,1,1,6,0,6,6,0,no
13,2,0,0,0,3,1,1,13,0,13,13,0,no
7,2,0,0,0,1,1,1,7,0,7,7,0,no
0,3,0,0,0,0,1,1,0,0,0,0,0,no
0,0,0,0,0,0,1,1,0,0,0,0,0,no
0,1,0,0,0,0,1,1,0,0,0,0,0,no
0,2,0,0,0,0,1,1,0,0,0,0,0,no
0,2,0,0,0,0,1,1,0,0,0,0,0,no
8,0,0,0,0,0,1,1,8,0,8,8,0,no
3,0,0,0,0,0,1,1,3,0,3,3,0,no
13,2,4,4,1,1,1,1,13,0,13,13,1,no
20,1,5,3,4,3,1,1,20,0,20,20,0,no
3,0,0,0,0,0,1,1,0,3,3,3,0,no
5,1,0,0,1,0,0,0,0,0,0,0,0,no
14,0,2,1,0,1,2,2,2,2,2,2,1,no
23,1,4,2,2,3,1,1,10,0,10,10,0,no
20,1,2,2,0,1,3,2,20,0,18,6.666667,0,no
17,1,2,1,0,1,5,4,4,3,2,1.4,0,no
3,0,0,0,0,0,0,0,0,0,0,0,0,no
38,2,6,4,2,8,2,2,2,2,2,2,1,no
5,1,1,1,0,0,1,1,5,0,5,5,1,no
9,0,2,2,0,0,1,1,9,0,9,9,1,no
13,1,2,1,3,1,0,0,0,0,0,0,0,no
3,0,0,0,0,0,0,0,0,0,0,0,0,no
3,0,0,0,0,0,1,1,3,0,3,3,1,no
7,2,1,1,0,1,0,0,0,0,0,0,0,no
2,0,0,0,0,0,1,1,2,0,2,2,0,no
23,3,6,2,1,1,1,1,23,0,23,23,0,no
11,2,1,1,2,1,1,1,11,0,11,11,0,no
9,1,1,1,0,1,1,1,9,0,9,9,0,no
13,0,3,1,0,0,1,1,13,0,13,13,0,no
0,4,0,0,1,0,1,1,0,0,0,0,0,no
17,2,3,1,0,3,1,1,17,0,17,17,0,no
7,2,1,1,1,2,1,1,7,0,7,7,1,no
6,0,1,1,0,0,0,0,0,0,0,0,0,no
6,1,1,1,0,0,0,0,0,0,0,0,0,no
5,0,1,1,1,1,0,0,0,0,0,0,0,no
3,1,0,0,0,0,0,0,0,0,0,0,0,no
3,2,0,0,0,0,0,0,0,0,0,0,0,no
4,2,0,0,0,0,1,1,4,0,4,4,1,no
8,2,0,0,0,0,1,1,8,0,8,8,1,yes
0,2,0,0,0,0,1,1,0,0,0,0,1,no
3,0,0,0,0,0,1,1,3,0,3,3,1,no
14,5,3,3,0,1,1,1,14,0,14,14,0,no
11,4,2,1,0,1,1,1,11,0,11,11,0,no
15,1,2,2,1,2,1,1,15,0,15,15,0,no
12,2,2,1,0,1,1,1,12,0,12,12,0,no
7,0,1,1,1,0,1,1,1,1,2,2,0,no
0,0,0,0,0,0,0,0,0,0,0,0,0,no
3,0,0,0,0,0,1,1,3,0,3,3,0,no
4,1,1,0,1,0,1,1,4,0,4,4,0,no
3,2,0,0,0,0,1,1,3,0,3,3,0,no
3,1,1,0,0,0,1,1,3,0,3,3,0,no
23,0,5,2,0,2,1,1,23,0,23,23,0,no
3,2,0,0,0,0,1,1,3,0,3,3,0,no
5,3,0,0,0,1,1,1,5,0,5,5,0,no
3,1,0,0,0,0,1,1,3,0,3,3,0,no
3,1,2,0,0,0,1,1,3,0,3,3,0,no
0,0,0,0,0,0,1,1,0,0,0,0,0,no
3,0,0,0,0,0,1,1,3,0,3,3,0,no
3,0,1,0,1,0,1,1,3,0,3,3,0,no
3,0,1,0,1,0,1,1,3,0,3,3,0,no
3,1,1,0,1,0,1,1,3,0,3,3,0,no
6,0,1,1,0,0,1,1,6,0,6,6,0,no
3,0,0,0,0,0,1,1,3,0,3,3,0,no
8,1,1,1,0,2,1,1,8,0,8,8,0,no
4,1,1,0,0,1,1,1,4,0,4,4,0,no
3,1,1,0,1,0,1,1,3,0,3,3,0,no
7,2,3,1,2,0,1,1,7,0,7,7,0,no
6,3,0,0,0,2,1,1,6,0,6,6,0,no
3,2,2,0,0,0,1,1,3,0,3,3,0,no
3,2,1,0,0,0,1,1,3,0,3,3,0,no
3,1,1,0,1,0,1,1,3,0,3,3,0,no
11,0,2,2,0,1,1,1,11,0,11,11,0,no
3,0,0,0,0,0,1,1,3,0,3,3,0,no
20,0,3,2,1,3,1,1,20,0,20,20,0,no
3,0,0,0,0,0,1,1,3,0,3,3,0,no
0,1,0,0,0,0,1,1,0,0,0,0,0,no
6,0,1,1,1,0,1,1,6,0,6,6,0,no
85,0,15,2,5,9,1,1,85,0,85,85,0,no
3,1,0,0,0,0,1,1,3,0,3,3,0,no
3,0,0,0,0,0,1,1,3,0,3,3,0,no
3,1,0,0,0,0,1,1,3,0,3,3,0,no
12,0,2,2,1,1,1,1,12,0,12,12,0,no
4,2,0,0,0,0,1,1,4,0,4,4,0,no
3,0,0,0,0,0,1,1,3,0,3,3,0,no
3,1,0,0,0,0,1,1,3,0,3,3,0,no
3,2,0,0,0,0,1,1,3,0,3,3,0,no
3,3,0,0,0,0,1,1,3,0,3,3,0,no
10,4,2,1,0,0,1,1,10,0,10,10,0,no
3,0,0,0,0,0,1,1,3,0,3,3,0,no
3,0,0,0,0,0,1,1,3,0,3,3,0,no
3,0,1,0,0,0,1,1,3,0,3,3,0,no
8,1,1,1,0,2,1,1,8,0,8,8,0,no
13,0,2,2,0,3,1,1,13,0,13,13,0,no
3,1,0,0,0,0,1,1,3,0,3,3,0,no
11,0,2,2,0,1,1,1,11,0,11,11,0,no
5,0,0,0,0,0,0,0,0,0,0,0,0,no
8,1,0,1,0,0,0,0,0,0,0,0,0,no
8,2,0,1,0,0,0,0,0,0,0,0,0,no
10,1,0,1,0,0,0,0,0,0,0,0,0,no
22,0,2,2,0,1,0,0,0,0,0,0,0,no
3,1,0,0,0,0,1,1,3,0,3,3,0,no
9,1,1,1,0,1,1,1,9,0,9,9,0,no
3,1,0,0,0,0,1,1,3,0,3,3,1,no
6,1,0,0,0,2,1,1,6,0,6,6,0,no
3,1,0,0,0,0,0,0,0,0,0,0,0,no
14,1,2,1,2,3,0,0,0,0,0,0,0,no
8,1,1,1,0,1,1,1,11,0,11,11,0,no
11,1,2,2,0,2,1,1,11,0,11,11,0,no
0,1,0,0,1,0,1,1,0,0,0,0,0,no
0,1,0,0,1,0,1,1,0,0,0,0,0,no
22,7,2,1,0,1,1,1,22,0,22,22,0,no
11,2,2,1,0,1,1,1,11,0,11,11,1,no
15,5,1,1,0,2,2,1,15,0,13,7.5,0,no
25,2,3,1,0,1,1,1,25,0,25,25,0,no
23,3,2,1,2,0,1,1,23,0,23,23,0,no
18,3,2,1,2,0,1,1,18,0,18,18,0,no
8,4,1,1,1,0,1,1,8,0,8,8,0,no
10,2,1,1,0,0,1,1,10,0,10,10,0,no
17,4,2,1,0,1,2,1,17,0,16,8.5,1,no
7,4,1,1,0,0,2,1,8,1,7,4.5,1,no
4,4,0,0,0,0,1,1,4,0,4,4,0,no
3,1,0,0,0,0,1,1,3,0,3,3,0,no
10,2,2,1,0,1,1,1,10,0,10,10,0,no
4,1,0,0,0,1,1,1,4,0,4,4,0,no
3,1,0,0,0,0,1,1,3,0,3,3,0,no
17,2,4,2,4,3,1,1,17,0,17,17,0,no
3,1,0,0,0,0,1,1,3,0,3,3,0,no
29,2,6,2,1,5,1,1,29,0,29,29,0,no
13,1,3,3,0,3,1,1,13,0,13,13,0,no
9,1,1,1,1,3,1,1,9,0,9,9,0,no
15,0,2,2,0,1,1,1,15,0,15,15,0,no
10,0,1,1,0,1,1,1,10,0,10,10,0,no
14,2,1,1,0,4,1,1,14,0,14,14,0,no
0,1,0,0,1,0,1,1,0,0,0,0,0,no
6,1,1,1,0,0,1,1,6,0,6,6,1,no
9,1,2,1,0,0,1,1,9,0,9,9,1,no
4,2,0,0,0,0,1,1,4,0,4,4,0,no
3,0,0,0,0,0,1,1,3,0,3,3,0,no
3,0,0,0,0,0,1,1,3,0,3,3,0,no
3,1,0,0,0,0,1,1,3,0,3,3,0,no
3,1,0,0,0,0,1,1,3,0,3,3,0,no
3,1,0,0,0,0,1,1,3,0,3,3,1,no
3,0,0,0,0,0,1,1,3,0,3,3,1,no
20,1,5,1,2,0,2,2,20,0,18,10,1,no
5,0,1,1,0,0,1,1,5,0,5,5,1,no
4,0,0,0,0,0,1,1,4,0,4,4,0,no
4,2,0,0,0,0,1,1,4,0,4,4,0,no
7,1,1,1,1,0,1,1,7,0,7,7,0,no
52,0,12,5,8,4,1,1,52,0,52,52,0,no
3,4,0,0,0,0,1,1,3,0,3,3,0,no
3,4,0,0,0,0,1,1,3,0,3,3,0,no
3,4,0,0,0,0,1,1,3,0,3,3,0,no
3,5,0,0,0,0,1,1,3,0,3,3,0,no
0,1,0,0,0,0,1,1,0,0,0,0,0,no
3,2,0,0,0,0,1,1,3,0,3,3,0,no
21,3,5,2,4,2,1,1,21,0,21,21,0,no
0,3,0,0,0,0,1,1,0,0,0,0,0,no
0,0,0,0,0,0,1,1,0,0,0,0,0,no
0,2,0,0,0,0,1,1,0,0,0,0,0,no
0,0,0,0,0,0,1,1,0,0,0,0,0,no
8,0,2,2,1,0,1,1,8,0,8,8,0,no
3,0,0,0,0,0,1,1,3,0,3,3,0,no
3,0,0,0,0,0,1,1,3,0,3,3,0,no
3,0,0,0,0,0,1,1,3,0,3,3,0,no
3,0,0,0,0,0,1,1,3,0,3,3,0,no
3,0,0,0,0,0,1,1,3,0,3,3,0,no
6,0,1,1,1,0,1,1,6,0,6,6,0,no
3,0,0,0,0,0,1,1,3,0,3,3,0,no
7,1,1,1,1,0,1,1,7,0,7,7,0,no
5,1,0,0,0,0,1,1,5,0,5,5,0,no
12,1,3,1,3,0,1,1,12,0,12,12,0,no
3,1,0,0,0,0,1,1,3,0,3,3,0,no
47,0,11,4,8,4,1,1,47,0,47,47,0,no
46,0,11,4,8,4,1,1,46,0,46,46,0,no
3,0,0,0,0,0,1,1,3,0,3,3,0,no
3,0,0,0,0,0,1,1,3,0,3,3,0,no
3,0,0,0,0,0,1,1,3,0,3,3,0,no
3,0,0,0,0,0,1,1,3,0,3,3,0,no
3,0,0,0,0,0,1,1,3,0,3,3,0,no
3,0,0,0,0,0,1,1,3,0,3,3,0,no
3,0,0,0,0,0,1,1,3,0,3,3,0,no
3,0,0,0,0,0,1,1,3,0,3,3,0,no
3,1,0,0,1,0,1,1,3,0,3,3,0,no
3,1,0,0,0,0,1,1,3,0,3,3,0,no
8,2,1,1,0,1,1,1,8,0,8,8,0,no
11,0,2,2,1,4,1,1,11,0,11,11,0,no
10,2,0,0,0,1,1,1,10,0,10,10,0,no
3,0,0,0,0,0,1,1,3,0,3,3,0,no
3,1,0,0,0,0,1,1,3,0,3,3,0,no
3,1,0,0,0,0,1,1,3,0,3,3,0,no
3,0,0,0,0,0,1,1,3,0,3,3,0,no
3,1,0,0,0,0,1,1,3,0,3,3,0,no
3,0,0,0,0,0,1,1,3,0,3,3,0,no
3,0,0,0,0,0,1,1,3,0,3,3,0,no
3,2,0,0,0,0,1,1,3,0,3,3,0,no
3,1,0,0,0,0,1,1,3,0,3,3,0,no
3,1,0,0,0,0,1,1,3,0,3,3,0,no
3,0,0,0,0,0,1,1,3,0,3,3,0,no
3,0,0,0,0,0,1,1,3,0,3,3,0,no
4,1,0,0,0,1,1,1,4,0,4,4,0,no
10,2,0,0,0,1,1,1,10,0,10,10,0,no
3,1,0,0,0,0,1,1,3,0,3,3,0,no
5,1,1,1,1,2,1,1,5,0,5,5,0,no
3,0,0,0,0,0,1,1,3,0,3,3,0,no
3,1,0,0,0,0,1,1,3,0,3,3,0,no
3,1,0,0,0,0,1,1,3,0,3,3,0,no
3,0,0,0,0,0,1,1,3,0,3,3,0,no
3,0,0,0,0,0,1,1,3,0,3,3,0,no
6,1,1,1,1,0,1,1,6,0,6,6,0,no
3,1,0,0,0,0,1,1,3,0,3,3,0,no
3,1,0,0,0,0,1,1,3,0,3,3,0,no
3,0,0,0,0,0,1,1,3,0,3,3,0,no
3,0,0,0,0,0,1,1,3,0,3,3,0,no
3,1,0,0,0,0,1,1,3,0,3,3,0,no
4,1,0,0,0,1,1,1,4,0,4,4,0,no
0,1,0,0,1,0,1,1,0,0,0,0,0,no
0,0,0,0,1,0,1,1,0,0,0,0,0,no
0,1,0,0,1,0,1,1,0,0,0,0,0,no
0,2,0,0,1,0,1,1,0,0,0,0,0,no
0,2,0,0,1,0,1,1,0,0,0,0,0,no
0,4,0,0,1,0,1,1,0,0,0,0,0,no
0,1,0,0,1,0,1,1,0,0,0,0,0,no
0,2,0,0,1,0,1,1,0,0,0,0,0,no
0,3,0,0,1,0,1,1,0,0,0,0,0,no
0,1,0,0,1,0,1,1,0,0,0,0,0,no
0,0,0,0,1,0,1,1,0,0,0,0,0,no
0,0,0,0,1,0,1,1,0,0,0,0,0,no
0,1,0,0,1,0,1,1,0,0,0,0,0,no
0,1,0,0,1,0,1,1,0,0,0,0,0,no
0,3,0,0,1,0,1,1,0,0,0,0,0,no
0,3,0,0,1,0,1,1,0,0,0,0,0,no
0,1,0,0,1,0,1,1,0,0,0,0,0,no
0,1,0,0,1,0,1,1,0,0,0,0,0,no
0,1,0,0,1,0,1,1,0,0,0,0,0,no
0,1,0,0,1,0,1,1,0,0,0,0,0,no
0,2,0,0,1,0,1,1,0,0,0,0,0,no
0,1,0,0,1,0,1,1,0,0,0,0,0,no
0,0,0,0,1,0,1,1,0,0,0,0,0,no
0,2,0,0,1,0,1,1,0,0,0,0,0,no
0,2,0,0,1,0,1,1,0,0,0,0,0,no
0,0,0,0,1,0,1,1,0,0,0,0,0,no
0,2,0,0,1,0,1,1,0,0,0,0,0,no
0,2,0,0,1,0,1,1,0,0,0,0,0,no
0,2,0,0,1,0,1,1,0,0,0,0,0,no
0,2,0,0,1,0,1,1,0,0,0,0,0,no
3,1,0,0,0,0,1,1,3,0,3,3,0,no
10,1,4,1,4,1,1,1,10,0,10,10,0,no
3,0,0,0,0,0,1,1,3,0,3,3,0,no
3,0,1,0,0,0,1,1,3,0,3,3,0,no
3,1,0,0,0,0,1,1,3,0,3,3,0,no
3,0,0,0,0,0,1,1,3,0,3,3,0,no
13,3,2,2,0,0,1,1,13,0,13,13,0,no
9,1,3,1,3,0,1,1,9,0,9,9,0,no
3,1,0,0,0,0,1,1,3,0,3,3,0,no
12,1,0,0,0,0,1,1,12,0,12,12,0,no
12,1,0,0,0,0,1,1,12,0,12,12,0,no
70,0,18,5,9,6,2,2,71,1,70,36,1,no
7,0,2,1,2,0,1,1,7,0,7,7,0,no
25,0,6,3,3,4,1,1,25,0,25,25,0,no
5,1,1,1,1,0,1,1,5,0,5,5,0,no
5,2,1,1,1,0,1,1,5,0,5,5,0,no
5,0,1,1,1,0,1,1,5,0,5,5,0,no
8,1,2,1,2,0,2,2,9,1,8,5,1,no
8,2,2,1,2,0,2,2,9,1,8,5,1,no
8,3,2,1,2,0,2,2,9,1,8,5,1,no
10,2,3,1,0,0,1,1,10,0,10,10,0,no
10,4,3,1,0,0,1,1,10,0,10,10,0,no
11,2,3,1,3,0,2,2,12,1,11,6.5,1,no
11,4,3,1,3,0,2,2,12,1,11,6.5,1,no
5,0,1,1,1,0,1,1,5,0,5,5,0,no
5,0,1,1,1,0,1,1,5,0,5,5,0,no
5,0,1,1,1,0,1,1,5,0,5,5,0,no
5,1,1,1,1,0,1,1,5,0,5,5,0,no
6,1,1,1,1,0,1,1,6,0,6,6,0,no
10,2,3,1,0,0,1,1,10,0,10,10,0,no
8,1,2,1,2,0,2,2,9,1,8,5,1,no
5,1,1,1,1,0,1,1,5,0,5,5,0,no
3,1,0,0,0,0,1,1,3,0,3,3,0,no
3,2,0,0,0,0,1,1,3,0,3,3,0,no
3,1,0,0,0,0,1,1,3,0,3,3,0,no
5,0,1,1,1,0,1,1,5,0,5,5,0,no
10,1,0,0,0,2,1,1,10,0,10,10,0,no
8,1,2,1,2,0,2,2,9,1,8,5,1,no
8,3,2,1,2,0,2,2,9,1,8,5,1,no
10,3,3,1,0,0,1,1,10,0,10,10,0,no
5,0,1,1,1,0,1,1,5,0,5,5,0,no
5,0,1,1,1,0,1,1,5,0,5,5,0,no
5,0,1,1,1,0,1,1,5,0,5,5,0,no
5,1,1,1,1,0,1,1,5,0,5,5,0,no
8,1,2,1,2,0,2,2,9,1,8,5,1,no
3,0,0,0,0,0,1,1,3,0,3,3,0,no
36,4,10,4,6,3,1,1,36,0,36,36,0,no
103,3,31,5,13,10,1,1,103,0,103,103,0,no
19,1,6,3,2,0,1,1,19,0,19,19,0,no
6,3,0,0,0,1,1,1,6,0,6,6,0,no
5,1,0,0,0,0,1,1,5,0,5,5,0,no
8,0,2,2,1,0,1,1,8,0,8,8,0,no
3,1,0,0,0,0,1,1,3,0,3,3,0,no
3,1,0,0,0,0,1,1,3,0,3,3,0,no
3,0,0,0,0,0,1,1,3,0,3,3,0,no
3,0,0,0,0,0,1,1,3,0,3,3,0,no
3,0,0,0,0,0,1,1,3,0,3,3,0,no
10,2,3,1,0,0,1,1,10,0,10,10,0,no
3,0,0,0,0,0,1,1,3,0,3,3,0,no
5,2,1,1,1,0,1,1,5,0,5,5,0,no
3,0,0,0,0,0,1,1,3,0,3,3,0,no
3,2,0,0,0,0,1,1,3,0,3,3,0,no
3,2,0,0,0,0,1,1,3,0,3,3,0,no
24,1,7,2,5,3,1,1,24,0,24,24,0,no
3,0,0,0,0,0,1,1,3,0,3,3,0,no
3,1,0,0,0,0,1,1,3,0,3,3,0,no
3,1,0,0,0,0,1,1,3,0,3,3,0,no
17,2,4,1,3,2,1,1,17,0,17,17,0,no
7,0,2,1,2,0,1,1,7,0,7,7,0,no
3,1,0,0,0,0,1,1,3,0,3,3,0,no
3,2,0,0,0,0,1,1,3,0,3,3,0,no
61,4,21,4,12,2,1,1,61,0,61,61,0,no
3,1,0,0,0,0,1,1,3,0,3,3,0,no
3,2,0,0,0,0,1,1,3,0,3,3,0,no
9,0,3,1,3,0,1,1,9,0,9,9,0,no
8,0,0,0,0,1,1,1,8,0,8,8,0,no
11,1,3,1,3,3,1,1,11,0,11,11,0,no
55,0,14,5,10,4,1,1,55,0,55,55,0,no
8,1,2,1,1,0,1,1,8,0,8,8,0,no
79,0,20,5,8,7,1,1,79,0,79,79,0,no
64,0,15,5,8,6,1,1,64,0,64,64,0,no
3,2,0,0,0,0,1,1,3,0,3,3,0,no
3,2,0,0,0,0,1,1,3,0,3,3,0,no
2,0,0,0,0,0,1,1,2,0,2,2,0,no
7,1,2,1,2,0,1,1,7,0,7,7,0,no
3,1,0,0,0,0,1,1,3,0,3,3,0,no
20,4,5,2,2,1,1,1,20,0,20,20,0,no
3,1,0,0,0,0,1,1,3,0,3,3,0,no
6,1,1,1,1,1,1,1,6,0,6,6,0,no
3,2,0,0,0,0,1,1,3,0,3,3,0,no
3,0,0,0,0,0,1,1,3,0,3,3,0,no
3,0,0,0,0,0,1,1,3,0,3,3,0,no
3,0,0,0,0,0,1,1,3,0,3,3,0,no
3,0,0,0,0,0,1,1,3,0,3,3,0,no
3,0,0,0,0,0,1,1,3,0,3,3,0,no
7,2,1,1,0,0,1,1,7,0,7,7,0,no
12,1,4,1,5,1,1,1,12,0,12,12,0,no
5,0,0,0,0,1,1,1,5,0,5,5,0,no
3,0,0,0,0,0,1,1,3,0,3,3,0,no
3,0,0,0,0,0,1,1,3,0,3,3,0,no
8,0,0,0,0,1,1,1,8,0,8,8,0,no
5,3,0,0,0,0,1,1,5,0,5,5,0,no
9,0,0,0,0,1,1,1,9,0,9,9,0,no
0,0,0,0,1,0,1,1,0,0,0,0,0,no
0,0,0,0,1,0,1,1,0,0,0,0,0,no
3,1,0,0,0,0,1,1,3,0,3,3,0,no
10,4,3,1,0,0,1,1,10,0,10,10,0,no
14,3,3,1,1,2,1,1,14,0,14,14,0,no
6,0,0,0,0,1,1,1,6,0,6,6,0,no
9,1,1,1,0,1,1,1,9,0,9,9,0,no
3,0,0,0,0,0,1,1,3,0,3,3,0,no
3,0,0,0,0,0,1,1,3,0,3,3,0,no
11,1,2,1,0,0,1,1,11,0,11,11,0,no
11,1,2,1,0,0,1,1,11,0,11,11,0,no
3,2,0,0,0,0,1,1,3,0,3,3,0,no
9,2,1,1,0,1,1,1,9,0,9,9,0,no
3,2,0,0,0,0,1,1,3,0,3,3,0,no
36,4,9,4,2,3,1,1,36,0,36,36,0,no
7,2,1,1,0,0,1,1,7,0,7,7,0,no
12,1,4,1,5,1,1,1,12,0,12,12,0,no
5,0,0,0,0,1,1,1,5,0,5,5,0,no
3,0,0,0,0,0,1,1,3,0,3,3,0,no
3,0,0,0,0,0,1,1,3,0,3,3,0,no
8,0,0,0,0,1,1,1,8,0,8,8,0,no
0,0,0,0,1,0,1,1,0,0,0,0,0,no
0,0,0,0,1,0,1,1,0,0,0,0,0,no
0,0,0,0,1,0,1,1,0,0,0,0,0,no
5,2,0,0,0,0,1,1,5,0,5,5,0,no
5,2,0,0,0,0,1,1,5,0,5,5,0,no
9,0,2,2,0,0,1,1,9,0,9,9,0,no
7,1,2,2,1,0,1,1,7,0,7,7,0,no
13,0,2,2,0,1,1,1,13,0,13,13,0,no
3,0,0,0,0,0,1,1,3,0,3,3,0,no
20,0,4,4,0,1,1,1,20,0,20,20,0,no
9,0,0,0,0,1,1,1,9,0,9,9,0,no
5,3,0,0,0,0,1,1,5,0,5,5,0,no
7,0,1,1,2,1,1,1,7,0,7,7,0,no
3,0,0,0,0,0,1,1,3,0,3,3,0,no
2,0,0,0,0,0,1,1,2,0,2,2,0,no
9,0,0,0,0,1,1,1,9,0,9,9,0,no
4,2,0,0,0,0,1,1,4,0,4,4,0,no
3,0,0,0,0,0,1,1,3,0,3,3,0,no
3,0,0,0,0,0,1,1,3,0,3,3,0,no
3,0,0,0,0,0,1,1,3,0,3,3,0,no
3,0,0,0,0,0,1,1,3,0,3,3,0,no
3,0,0,0,0,0,1,1,3,0,3,3,0,no
3,0,0,0,0,0,1,1,3,0,3,3,0,no
3,0,0,0,0,0,1,1,3,0,3,3,0,no
3,1,0,0,0,0,1,1,3,0,3,3,0,no
7,0,0,0,0,1,1,1,7,0,7,7,0,no
20,2,4,3,3,4,1,1,20,0,20,20,0,no
5,3,0,0,0,0,1,1,5,0,5,5,0,no
3,0,0,0,0,0,1,1,3,0,3,3,0,no
3,0,0,0,0,0,1,1,3,0,3,3,0,no
3,0,0,0,0,0,1,1,3,0,3,3,0,no
3,0,0,0,0,0,1,1,3,0,3,3,0,no
3,1,0,0,1,0,1,1,3,0,3,3,0,no
3,1,0,0,0,0,1,1,3,0,3,3,0,no
6,1,1,1,1,1,1,1,6,0,6,6,0,no
6,1,1,1,1,1,1,1,6,0,6,6,0,no
6,1,1,1,0,0,1,1,6,0,6,6,0,no
3,1,0,0,0,0,1,1,3,0,3,3,0,no
27,2,4,1,2,5,1,1,27,0,27,27,0,no
4,1,0,0,0,0,1,1,4,0,4,4,0,no
17,4,2,2,1,1,1,1,17,0,17,17,0,no
6,6,0,0,0,0,1,1,6,0,6,6,0,no
6,0,0,0,0,0,1,1,6,0,6,6,0,no
3,3,0,0,0,0,1,1,3,0,3,3,0,no
12,0,1,1,1,2,1,1,12,0,12,12,0,no
5,0,1,1,1,0,1,1,5,0,5,5,0,no
3,0,0,0,0,0,1,1,3,0,3,3,0,no
5,0,1,1,1,0,1,1,5,0,5,5,0,no
3,0,0,0,0,0,1,1,3,0,3,3,0,no
11,0,2,1,2,1,1,1,11,0,11,11,0,no
11,0,2,1,2,1,1,1,11,0,11,11,0,no
11,1,2,1,2,1,1,1,11,0,11,11,0,no
11,2,2,1,2,1,1,1,11,0,11,11,0,no
11,0,2,1,2,1,1,1,11,0,11,11,0,no
11,0,2,1,2,1,1,1,11,0,11,11,0,no
11,0,2,1,2,1,1,1,11,0,11,11,0,no
11,0,2,1,2,1,1,1,11,0,11,11,0,no
11,0,2,1,2,1,1,1,11,0,11,11,0,no
11,0,2,1,2,1,1,1,11,0,11,11,0,no
11,0,2,1,2,1,1,1,11,0,11,11,0,no
11,0,2,1,2,1,1,1,11,0,11,11,0,no
11,0,2,1,2,1,1,1,11,0,11,11,0,no
13,0,2,1,2,1,1,1,13,0,13,13,0,no
11,1,2,1,2,1,1,1,11,0,11,11,0,no
11,1,2,1,2,1,1,1,11,0,11,11,0,no
11,1,2,1,2,1,1,1,11,0,11,11,0,no
11,3,2,1,2,1,1,1,11,0,11,11,0,no
11,1,2,1,2,1,1,1,11,0,11,11,0,no
11,1,2,1,2,1,1,1,11,0,11,11,0,no
11,1,2,1,2,1,1,1,11,0,11,11,0,no
11,1,2,1,2,1,1,1,11,0,11,11,0,no
11,1,2,1,2,1,1,1,11,0,11,11,0,no
33,1,12,11,2,1,1,1,33,0,33,33,0,no
11,1,2,1,2,1,1,1,11,0,11,11,0,no
11,1,2,1,2,1,1,1,11,0,11,11,0,no
4,1,0,0,0,0,1,1,4,0,4,4,0,no
3,0,0,0,0,0,1,1,3,0,3,3,0,no
5,0,0,0,0,1,1,1,5,0,5,5,0,no
3,0,0,0,0,0,1,1,3,0,3,3,0,no
3,0,0,0,0,0,1,1,3,0,3,3,0,no
3,1,0,0,0,0,1,1,3,0,3,3,0,no
5,2,1,1,1,0,1,1,5,0,5,5,0,no
3,0,0,0,0,0,1,1,3,0,3,3,0,no
3,0,0,0,0,0,1,1,3,0,3,3,0,no
3,0,0,0,0,0,1,1,3,0,3,3,0,no
3,0,0,0,0,0,1,1,3,0,3,3,0,no
3,0,0,0,0,0,1,1,3,0,3,3,0,no
3,0,0,0,0,0,1,1,3,0,3,3,0,no
3,0,0,0,0,0,1,1,3,0,3,3,0,no
3,0,0,0,0,0,1,1,3,0,3,3,0,no
3,0,0,0,0,0,1,1,3,0,3,3,0,no
4,0,0,0,0,0,1,1,4,0,4,4,0,no
5,1,0,0,0,0,1,1,5,0,5,5,0,no
4,0,0,0,0,0,1,1,4,0,4,4,0,no
3,1,0,0,0,0,1,1,3,0,3,3,0,no
3,1,0,0,0,0,1,1,3,0,3,3,0,no
3,1,0,0,0,0,1,1,3,0,3,3,0,no
3,3,0,0,0,0,1,1,3,0,3,3,0,no
3,1,0,0,0,0,1,1,3,0,3,3,0,no
3,1,0,0,0,0,1,1,3,0,3,3,0,no
3,1,0,0,0,0,1,1,3,0,3,3,0,no
3,1,0,0,0,0,1,1,3,0,3,3,0,no
3,1,0,0,0,0,1,1,3,0,3,3,0,no
3,1,0,0,0,0,1,1,3,0,3,3,0,no
3,1,0,0,0,0,1,1,3,0,3,3,0,no
15,2,3,2,1,3,1,1,15,0,15,15,0,no
4,1,0,0,0,0,1,1,4,0,4,4,0,no
5,4,0,0,0,0,1,1,5,0,5,5,0,no
11,6,1,1,1,1,1,1,11,0,11,11,0,no
5,0,0,0,0,0,1,1,5,0,5,5,0,no
3,3,0,0,0,0,1,1,3,0,3,3,0,no
12,0,1,1,1,2,1,1,12,0,12,12,0,no
3,1,0,0,0,0,1,1,3,0,3,3,0,no
3,1,0,0,0,0,1,1,3,0,3,3,0,no
3,1,0,0,0,0,1,1,3,0,3,3,0,no
3,1,0,0,0,0,1,1,3,0,3,3,0,no
3,1,0,0,0,0,1,1,3,0,3,3,0,no
3,1,0,0,0,0,1,1,3,0,3,3,0,no
3,1,0,0,0,0,1,1,3,0,3,3,0,no
3,0,0,0,0,0,1,1,3,0,3,3,0,no
3,1,0,0,0,0,1,1,3,0,3,3,0,no
3,0,0,0,0,0,1,1,3,0,3,3,0,no
3,1,0,0,0,0,1,1,3,0,3,3,0,no
3,1,0,0,0,0,1,1,3,0,3,3,0,no
3,1,0,0,0,0,1,1,3,0,3,3,0,no
3,0,0,0,0,0,1,1,3,0,3,3,0,no
3,1,0,0,0,0,1,1,3,0,3,3,0,no
5,0,1,1,1,0,1,1,5,0,5,5,0,no
7,2,2,1,2,0,1,1,7,0,7,7,0,no
7,2,2,1,2,0,1,1,7,0,7,7,0,no
7,2,2,1,2,0,1,1,7,0,7,7,0,no
7,4,2,1,2,0,1,1,7,0,7,7,0,no
7,2,2,1,2,0,1,1,7,0,7,7,0,no
7,2,2,1,2,0,1,1,7,0,7,7,0,no
7,2,2,1,2,0,1,1,7,0,7,7,0,no
7,2,2,1,2,0,1,1,7,0,7,7,0,no
7,2,2,1,2,0,1,1,7,0,7,7,0,no
7,2,2,1,2,0,1,1,7,0,7,7,0,no
7,2,2,1,2,0,1,1,7,0,7,7,0,no
7,2,2,1,2,0,1,1,7,0,7,7,0,no
28,2,3,2,3,4,1,1,28,0,28,28,0,no
7,1,0,0,0,0,1,1,7,0,7,7,0,no
29,4,10,1,10,0,1,1,29,0,29,29,0,no
29,6,9,1,7,1,1,1,29,0,29,29,0,no
3,0,0,0,0,0,1,1,3,0,3,3,0,no
4,1,1,1,1,0,1,1,4,0,4,4,0,no
2,0,0,0,0,0,1,1,2,0,2,2,0,no
4,0,0,0,0,0,1,1,4,0,4,4,0,no
6,3,1,1,0,0,1,1,6,0,6,6,0,no
8,0,1,1,0,1,1,1,8,0,8,8,0,no
3,0,0,0,0,0,1,1,3,0,3,3,0,no
3,2,0,0,0,0,1,1,3,0,3,3,0,no
4,1,0,0,0,0,1,1,4,0,4,4,0,no
3,2,0,0,0,0,1,1,3,0,3,3,0,no
4,1,0,0,0,0,1,1,4,0,4,4,0,no
3,2,0,0,0,0,1,1,3,0,3,3,0,no
4,1,0,0,0,0,1,1,4,0,4,4,0,no
3,2,0,0,0,0,1,1,3,0,3,3,0,no
4,1,0,0,0,0,1,1,4,0,4,4,0,no
3,2,0,0,0,0,1,1,3,0,3,3,0,no
4,1,0,0,0,0,1,1,4,0,4,4,0,no
3,0,0,0,0,0,1,1,3,0,3,3,0,no
3,0,0,0,0,0,1,1,3,0,3,3,0,no
3,0,0,0,0,0,1,1,3,0,3,3,0,no
3,0,0,0,0,0,1,1,3,0,3,3,0,no
3,0,0,0,0,0,1,1,3,0,3,3,0,no
3,0,0,0,0,0,1,1,3,0,3,3,0,no
3,0,0,0,0,0,1,1,3,0,3,3,0,no
3,0,0,0,0,0,1,1,3,0,3,3,0,no
3,0,0,0,0,0,1,1,3,0,3,3,0,no
3,0,0,0,0,0,1,1,3,0,3,3,0,no
3,0,0,0,0,0,1,1,3,0,3,3,0,no
5,0,1,1,1,0,1,1,5,0,5,5,0,no
3,2,0,0,0,0,1,1,3,0,3,3,0,no
4,1,0,0,0,0,1,1,4,0,4,4,0,no
4,1,0,0,0,0,1,1,4,0,4,4,0,no
3,0,0,0,0,0,1,1,3,0,3,3,0,no
35,1,15,2,14,1,1,1,35,0,35,35,0,no
3,0,0,0,0,0,1,1,3,0,3,3,0,no
3,2,0,0,0,0,1,1,3,0,3,3,0,no
4,1,0,0,0,0,1,1,4,0,4,4,0,no
3,0,0,0,0,0,1,1,3,0,3,3,0,no
3,2,0,0,0,0,1,1,3,0,3,3,0,no
4,1,0,0,0,0,1,1,4,0,4,4,0,no
3,0,0,0,0,0,1,1,3,0,3,3,0,no
11,0,3,1,4,1,1,1,11,0,11,11,0,no
3,0,0,0,0,0,1,1,3,0,3,3,0,no
33,1,11,3,8,3,1,1,33,0,33,33,0,no
5,1,1,1,1,0,1,1,5,0,5,5,0,no
2,0,0,0,0,0,1,1,2,0,2,2,0,no
8,2,2,1,2,0,1,1,8,0,8,8,0,no
8,2,2,1,2,0,1,1,8,0,8,8,0,no
8,2,2,1,2,0,1,1,8,0,8,8,0,no
8,2,2,1,2,0,1,1,8,0,8,8,0,no
8,2,2,1,2,0,1,1,8,0,8,8,0,no
10,1,1,1,0,0,1,1,10,0,10,10,0,no
3,1,0,0,0,0,1,1,3,0,3,3,0,no
5,1,0,0,0,0,1,1,5,0,5,5,0,no
10,1,1,1,0,0,1,1,10,0,10,10,0,no
10,1,1,1,0,0,1,1,10,0,10,10,0,no
5,1,1,1,1,0,1,1,5,0,5,5,0,no
8,1,1,1,0,0,1,1,8,0,8,8,0,no
5,1,0,0,0,0,1,1,5,0,5,5,0,no
4,1,0,0,0,0,1,1,4,0,4,4,0,no
10,1,1,1,0,0,1,1,10,0,10,10,0,no
4,1,0,0,0,0,1,1,4,0,4,4,0,no
10,1,1,1,0,0,1,1,10,0,10,10,0,no
8,2,2,1,2,0,1,1,8,0,8,8,0,no
12,2,3,1,2,0,1,1,12,0,12,12,0,no
8,2,2,1,2,0,1,1,8,0,8,8,0,no
8,2,2,1,2,0,1,1,8,0,8,8,0,no
22,0,0,0,0,1,1,1,22,0,22,22,0,no
9,1,3,1,3,0,1,1,9,0,9,9,0,no
9,1,3,1,3,0,1,1,9,0,9,9,0,no
5,1,1,1,1,0,1,1,5,0,5,5,0,no
7,1,2,1,2,0,1,1,7,0,7,7,0,no
11,1,4,1,4,0,1,1,11,0,11,11,0,no
17,1,7,1,7,0,1,1,17,0,17,17,0,no
9,1,3,1,3,0,1,1,9,0,9,9,0,no
13,1,5,1,5,0,1,1,13,0,13,13,0,no
17,1,7,1,7,0,1,1,17,0,17,17,0,no
15,1,6,1,6,0,1,1,15,0,15,15,0,no
11,1,4,1,4,0,1,1,11,0,11,11,0,no
7,1,2,1,2,0,1,1,7,0,7,7,0,no
13,1,2,2,1,1,1,1,13,0,13,13,0,no
5,4,0,0,0,1,1,1,5,0,5,5,0,no
21,2,6,1,0,0,1,1,21,0,21,21,0,no
18,2,5,1,0,0,1,1,18,0,18,18,0,no
22,1,3,3,1,4,1,1,22,0,22,22,0,no
44,1,7,3,4,11,1,1,44,0,44,44,0,no
3,1,0,0,0,0,1,1,3,0,3,3,0,no
14,1,1,2,1,2,1,1,14,0,14,14,0,no
23,5,8,1,1,3,1,1,23,0,23,23,0,no
3,1,0,0,1,0,1,1,3,0,3,3,0,no
3,0,0,0,0,0,1,1,3,0,3,3,0,no
8,2,1,1,0,0,1,1,8,0,8,8,0,no
5,4,0,0,0,0,1,1,5,0,5,5,0,no
11,6,2,1,1,1,1,1,11,0,11,11,0,no
5,2,0,0,0,0,1,1,5,0,5,5,0,no
5,0,0,0,0,0,1,1,5,0,5,5,0,no
21,1,2,1,3,5,1,1,21,0,21,21,0,no
3,3,0,0,0,0,1,1,3,0,3,3,0,no
13,0,2,2,2,2,1,1,13,0,13,13,0,no
3,0,0,0,0,0,1,1,3,0,3,3,0,no
3,0,0,0,0,0,1,1,3,0,3,3,0,no
3,0,0,0,0,0,1,1,3,0,3,3,0,no
5,0,1,1,1,0,1,1,5,0,5,5,0,no
5,1,1,1,1,0,1,1,5,0,5,5,0,no
4,1,0,0,0,0,1,1,4,0,4,4,0,no
13,6,1,1,1,2,1,1,13,0,13,13,0,no
17,4,2,2,1,1,1,1,17,0,17,17,0,no
25,2,4,3,2,4,1,1,25,0,25,25,0,no
6,0,0,0,0,0,1,1,6,0,6,6,0,no
3,3,0,0,0,0,1,1,3,0,3,3,0,no
13,0,1,1,1,3,1,1,13,0,13,13,0,no
3,0,0,0,0,0,1,1,3,0,3,3,0,no
8,0,1,1,1,2,1,1,8,0,8,8,0,no
3,0,0,0,0,0,1,1,3,0,3,3,0,no
11,0,2,1,2,1,1,1,11,0,11,11,0,no
11,0,2,1,2,1,1,1,11,0,11,11,0,no
3,1,0,0,0,0,1,1,3,0,3,3,0,no
11,0,2,1,2,1,1,1,11,0,11,11,0,no
11,0,2,1,2,1,1,1,11,0,11,11,0,no
11,0,2,1,2,1,1,1,11,0,11,11,0,no
11,0,2,1,2,1,1,1,11,0,11,11,0,no
11,0,2,1,2,1,1,1,11,0,11,11,0,no
11,0,2,1,2,1,1,1,11,0,11,11,0,no
11,0,2,1,2,1,1,1,11,0,11,11,0,no
11,0,2,1,2,1,1,1,11,0,11,11,0,no
14,0,2,1,2,2,1,1,14,0,14,14,0,no
11,1,2,1,2,1,1,1,11,0,11,11,0,no
11,1,2,1,2,1,1,1,11,0,11,11,0,no
11,1,2,1,2,1,1,1,11,0,11,11,0,no
11,3,2,1,2,1,1,1,11,0,11,11,0,no
11,1,2,1,2,1,1,1,11,0,11,11,0,no
11,1,2,1,2,1,1,1,11,0,11,11,0,no
11,1,2,1,2,1,1,1,11,0,11,11,0,no
11,1,2,1,2,1,1,1,11,0,11,11,0,no
11,1,2,1,2,1,1,1,11,0,11,11,0,no
11,1,2,1,2,1,1,1,11,0,11,11,0,no
11,1,2,1,2,1,1,1,11,0,11,11,0,no
11,1,2,1,2,1,1,1,11,0,11,11,0,no
4,1,0,0,0,0,1,1,4,0,4,4,0,no
3,0,0,0,0,0,1,1,3,0,3,3,0,no
12,0,1,2,1,3,1,1,12,0,12,12,0,no
12,0,1,2,1,3,1,1,12,0,12,12,0,no
12,0,1,2,1,3,1,1,12,0,12,12,0,no
12,0,1,2,1,3,1,1,12,0,12,12,0,no
12,0,1,2,1,3,1,1,12,0,12,12,0,no
12,0,1,2,1,3,1,1,12,0,12,12,0,no
12,0,1,2,1,3,1,1,12,0,12,12,0,no
13,0,3,2,5,1,1,1,13,0,13,13,0,no
3,0,0,0,0,0,1,1,3,0,3,3,0,no
12,0,1,2,1,3,1,1,12,0,12,12,0,no
12,0,1,2,1,3,1,1,12,0,12,12,0,no
3,1,0,0,0,0,1,1,3,0,3,3,0,no
10,0,1,1,1,1,1,1,10,0,10,10,0,no
18,1,3,2,3,1,1,1,18,0,18,18,0,no
10,1,1,1,1,0,1,1,10,0,10,10,0,no
3,1,0,0,0,0,1,1,3,0,3,3,0,no
3,1,0,0,0,0,1,1,3,0,3,3,0,no
3,1,0,0,0,0,1,1,3,0,3,3,0,no
5,3,0,0,0,1,1,1,5,0,5,5,0,no
3,1,0,0,0,0,1,1,3,0,3,3,0,no
3,1,0,0,0,0,1,1,3,0,3,3,0,no
3,1,0,0,0,0,1,1,3,0,3,3,0,no
3,1,0,0,0,0,1,1,3,0,3,3,0,no
3,1,0,0,0,0,1,1,3,0,3,3,0,no
25,1,10,10,0,0,1,1,25,0,25,25,0,no
3,1,0,0,0,0,1,1,3,0,3,3,0,no
3,1,0,0,0,0,1,1,3,0,3,3,0,no
4,0,1,1,1,0,1,1,4,0,4,4,0,no
4,1,0,0,0,0,1,1,4,0,4,4,0,no
5,6,1,0,0,0,1,1,5,0,5,5,0,no
5,2,0,0,0,0,1,1,5,0,5,5,0,no
5,4,0,0,0,0,1,1,5,0,5,5,0,no
8,2,1,1,0,0,1,1,8,0,8,8,0,no
5,0,0,0,0,0,1,1,5,0,5,5,0,no
3,3,0,0,0,0,1,1,3,0,3,3,0,no
7,0,1,1,1,1,1,1,7,0,7,7,0,no
3,0,0,0,0,0,1,1,3,0,3,3,0,no
3,0,0,0,0,0,1,1,3,0,3,3,0,no
3,0,0,0,0,0,1,1,3,0,3,3,0,no
5,0,1,1,1,0,1,1,5,0,5,5,0,no
5,1,1,1,1,0,1,1,5,0,5,5,0,no
9,0,0,0,0,1,1,1,9,0,9,9,0,no
2,0,0,0,0,0,1,1,2,0,2,2,0,no
3,0,0,0,0,0,1,1,3,0,3,3,0,no
2,1,0,0,1,0,1,1,2,0,2,2,0,no
6,1,0,0,3,0,1,1,6,0,6,6,0,no
3,1,0,0,0,0,1,1,3,0,3,3,0,no
2,1,0,0,1,0,1,1,2,0,2,2,0,no
3,0,0,0,0,0,1,1,3,0,3,3,0,no
3,0,0,0,0,0,1,1,3,0,3,3,0,no
3,0,0,0,0,0,1,1,3,0,3,3,0,no
3,0,0,0,0,0,1,1,3,0,3,3,0,no
3,0,0,0,0,0,1,1,3,0,3,3,0,no
3,0,0,0,2,0,1,1,3,0,3,3,0,no
3,0,0,0,0,0,1,1,3,0,3,3,0,no
3,0,0,0,0,0,1,1,3,0,3,3,0,no
3,0,0,0,0,0,1,1,3,0,3,3,0,no
3,0,0,0,0,0,1,1,3,0,3,3,0,no
39,0,11,1,11,1,1,1,39,0,39,39,0,no
3,0,0,0,0,0,1,1,3,0,3,3,0,no
13,0,2,2,1,3,1,1,13,0,13,13,0,no
10,0,1,1,1,2,1,1,10,0,10,10,0,no
3,0,0,0,1,0,1,1,3,0,3,3,0,no
3,0,0,0,1,0,1,1,3,0,3,3,0,no
3,0,0,0,1,0,1,1,3,0,3,3,0,no
3,0,0,0,1,0,1,1,3,0,3,3,0,no
3,0,0,0,1,0,1,1,3,0,3,3,0,no
3,0,0,0,1,0,1,1,3,0,3,3,0,no
3,0,0,0,1,0,1,1,3,0,3,3,0,no
3,0,0,0,1,0,1,1,3,0,3,3,0,no
3,0,0,0,1,0,1,1,3,0,3,3,0,no
3,0,0,0,1,0,1,1,3,0,3,3,0,no
3,0,0,0,1,0,1,1,3,0,3,3,0,no
12,0,0,0,1,0,1,1,12,0,12,12,0,no
3,0,0,0,1,0,1,1,3,0,3,3,0,no
11,0,2,1,2,1,1,1,11,0,11,11,0,no
3,0,0,0,0,0,1,1,3,0,3,3,0,no
3,1,0,0,1,0,1,1,3,0,3,3,0,no
3,0,0,0,0,0,1,1,3,0,3,3,0,no
4,1,0,0,2,1,1,1,4,0,4,4,0,no
8,1,1,1,1,1,1,1,8,0,8,8,0,no
8,2,1,1,1,1,1,1,8,0,8,8,0,no
3,1,0,0,1,0,1,1,3,0,3,3,0,no
3,2,0,0,1,0,1,1,3,0,3,3,0,no
3,1,0,0,1,0,1,1,3,0,3,3,0,no
3,2,0,0,1,0,1,1,3,0,3,3,0,no
3,1,0,0,1,0,1,1,3,0,3,3,0,no
3,2,0,0,1,0,1,1,3,0,3,3,0,no
3,1,0,0,1,0,1,1,3,0,3,3,0,no
3,2,0,0,1,0,1,1,3,0,3,3,0,no
3,0,0,0,0,0,1,1,3,0,3,3,0,no
3,0,0,0,2,0,1,1,3,0,3,3,0,no
34,1,10,1,10,0,1,1,34,0,34,34,0,no
3,0,0,0,0,0,1,1,3,0,3,3,0,no
4,1,0,0,0,0,1,1,4,0,4,4,0,no
7,0,1,1,2,1,1,1,7,0,7,7,0,no
7,0,1,1,2,1,1,1,7,0,7,7,0,no
48,0,10,1,15,3,1,1,48,0,48,48,0,no
24,0,0,0,11,0,1,1,24,0,24,24,0,no
6,0,0,0,1,0,1,1,6,0,6,6,0,no
6,0,0,0,1,0,1,1,6,0,6,6,0,no
6,0,0,0,1,0,1,1,6,0,6,6,0,no
6,0,0,0,1,0,1,1,6,0,6,6,0,no
6,0,0,0,1,0,1,1,6,0,6,6,0,no
6,0,0,0,1,0,1,1,6,0,6,6,0,no
6,0,0,0,1,0,1,1,6,0,6,6,0,no
6,0,0,0,1,0,1,1,6,0,6,6,0,no
6,0,0,0,1,0,1,1,6,0,6,6,0,no
6,0,0,0,2,0,1,1,6,0,6,6,0,no
3,0,0,0,1,0,1,1,3,0,3,3,0,no
3,0,0,0,0,0,1,1,3,0,3,3,0,no
3,0,0,0,0,0,1,1,3,0,3,3,0,no
3,0,0,0,0,0,1,1,3,0,3,3,0,no
3,0,0,0,0,0,1,1,3,0,3,3,0,no
3,0,0,0,2,0,1,1,3,0,3,3,0,no
3,0,0,0,2,0,1,1,3,0,3,3,0,no
3,0,0,0,1,0,1,1,3,0,3,3,0,no
3,0,0,0,0,0,1,1,3,0,3,3,0,no
3,0,0,0,0,0,1,1,3,0,3,3,0,no
3,0,0,0,0,0,1,1,3,0,3,3,0,no
3,0,0,0,0,0,1,1,3,0,3,3,0,no
3,0,0,0,0,0,1,1,3,0,3,3,0,no
10,0,1,1,1,2,1,1,10,0,10,10,0,no
3,0,0,0,1,0,1,1,3,0,3,3,0,no
3,0,0,0,1,0,1,1,3,0,3,3,0,no
3,0,0,0,1,0,1,1,3,0,3,3,0,no
3,0,0,0,1,0,1,1,3,0,3,3,0,no
3,0,0,0,1,0,1,1,3,0,3,3,0,no
3,0,0,0,1,0,1,1,3,0,3,3,0,no
3,0,0,0,1,0,1,1,3,0,3,3,0,no
3,0,0,0,1,0,1,1,3,0,3,3,0,no
3,0,0,0,1,0,1,1,3,0,3,3,0,no
3,0,0,0,1,0,1,1,3,0,3,3,0,no
3,0,0,0,1,0,1,1,3,0,3,3,0,no
3,0,0,0,1,0,1,1,3,0,3,3,0,no
6,0,1,1,2,0,1,1,6,0,6,6,0,no
4,0,1,1,1,0,1,1,4,0,4,4,0,no
87,2,15,3,3,4,1,1,87,0,87,87,0,no
8,1,1,1,2,0,1,1,8,0,8,8,0,no
36,1,11,1,3,0,1,1,36,0,36,36,0,no
6,1,0,0,0,0,1,1,6,0,6,6,0,no
6,1,0,0,0,0,1,1,6,0,6,6,0,no
9,1,1,1,0,0,1,1,9,0,9,9,0,no
6,1,0,0,0,0,1,1,6,0,6,6,0,no
6,1,0,0,0,0,1,1,6,0,6,6,0,no
6,1,0,0,0,0,1,1,6,0,6,6,0,no
6,1,0,0,0,0,1,1,6,0,6,6,0,no
6,1,0,0,0,0,1,1,6,0,6,6,0,no
9,1,1,1,0,0,1,1,9,0,9,9,0,no
5,1,0,0,0,0,1,1,5,0,5,5,0,no
9,1,1,1,1,0,1,1,9,0,9,9,0,no
4,2,0,0,1,0,1,1,4,0,4,4,0,no
3,0,0,0,1,0,1,1,3,0,3,3,0,no
3,0,0,0,0,0,1,1,3,0,3,3,0,no
3,0,0,0,0,0,1,1,3,0,3,3,0,no
3,0,0,0,0,0,1,1,3,0,3,3,0,no
3,0,0,0,0,0,1,1,3,0,3,3,0,no
6,1,1,1,1,0,1,1,6,0,6,6,0,no
24,1,10,1,0,0,1,1,24,0,24,24,0,no
3,1,0,0,0,0,1,1,3,0,3,3,0,no
0,0,0,0,0,0,1,1,0,0,0,0,0,no
0,0,0,0,0,0,1,1,0,0,0,0,0,no
0,0,0,0,0,0,1,1,0,0,0,0,0,no
0,0,0,0,0,0,1,1,0,0,0,0,0,no
0,0,0,0,0,0,1,1,0,0,0,0,0,no
0,0,0,0,0,0,1,1,0,0,0,0,0,no
0,0,0,0,0,0,1,1,0,0,0,0,0,no
0,0,0,0,0,0,1,1,0,0,0,0,0,no
0,0,0,0,0,0,1,1,0,0,0,0,0,no
0,0,0,0,1,0,1,1,0,0,0,0,0,no
0,0,0,0,0,0,1,1,0,0,0,0,0,no
0,0,0,0,0,0,1,1,0,0,0,0,0,no
0,0,0,0,0,0,1,1,0,0,0,0,0,no
0,0,0,0,0,0,1,1,0,0,0,0,0,no
0,0,0,0,0,0,1,1,0,0,0,0,0,no
0,0,0,0,0,0,1,1,0,0,0,0,0,no
0,0,0,0,0,0,1,1,0,0,0,0,0,no
0,0,0,0,0,0,1,1,0,0,0,0,0,no
0,0,0,0,0,0,1,1,0,0,0,0,0,no
0,0,0,0,0,0,1,1,0,0,0,0,0,no
4,2,0,0,1,0,1,1,4,0,4,4,0,no
3,0,0,0,1,0,1,1,3,0,3,3,0,no
3,0,0,0,0,0,1,1,3,0,3,3,0,no
3,0,0,0,0,0,1,1,3,0,3,3,0,no
3,0,0,0,0,0,1,1,3,0,3,3,0,no
3,0,0,0,0,0,1,1,3,0,3,3,0,no
6,1,1,1,1,0,1,1,6,0,6,6,0,no
8,1,2,1,0,0,1,1,8,0,8,8,0,no
3,1,0,0,0,0,1,1,3,0,3,3,0,no
47,2,11,10,1,7,1,1,47,0,47,47,0,no
49,1,14,3,3,4,1,1,49,0,49,49,0,no
0,2,0,0,0,0,1,1,0,0,0,0,0,no
0,2,0,0,0,0,1,1,0,0,0,0,0,no
0,2,0,0,0,0,1,1,0,0,0,0,0,no
0,2,0,0,0,0,1,1,0,0,0,0,0,no
30,3,11,2,0,0,1,1,30,0,30,30,0,no
3,0,0,0,0,0,1,1,3,0,3,3,0,no
5,2,1,1,1,0,1,1,5,0,5,5,0,no
5,2,1,1,1,0,1,1,5,0,5,5,0,no
5,2,1,1,1,0,1,1,5,0,5,5,0,no
5,2,1,1,1,0,1,1,5,0,5,5,0,no
7,2,2,1,2,0,1,1,7,0,7,7,0,no
7,2,2,1,2,0,1,1,7,0,7,7,0,no
7,2,2,1,2,0,1,1,7,0,7,7,0,no
7,2,2,1,2,0,1,1,7,0,7,7,0,no
5,2,1,1,1,0,1,1,5,0,5,5,0,no
5,2,1,1,1,0,1,1,5,0,5,5,0,no
5,2,1,1,1,0,1,1,5,0,5,5,0,no
5,2,1,1,1,0,1,1,5,0,5,5,0,no
5,2,1,1,1,0,1,1,5,0,5,5,0,no
5,2,1,1,1,0,1,1,5,0,5,5,0,no
5,2,1,1,1,0,1,1,5,0,5,5,0,no
5,2,1,1,1,0,1,1,5,0,5,5,0,no
13,1,3,1,4,3,1,1,13,0,13,13,0,no
0,3,0,0,0,0,1,1,0,0,0,0,0,no
3,0,0,0,0,0,1,1,3,0,3,3,0,no
0,1,0,0,1,0,1,1,0,0,0,0,0,no
5,2,0,0,0,0,1,1,5,0,5,5,0,no
5,2,0,0,0,0,1,1,5,0,5,5,0,no
5,2,0,0,0,0,1,1,5,0,5,5,0,no
6,2,1,1,1,0,1,1,6,0,6,6,0,no
5,2,0,0,0,0,1,1,5,0,5,5,0,no
5,2,0,0,0,0,1,1,5,0,5,5,0,no
5,2,0,0,0,0,1,1,5,0,5,5,0,no
5,2,0,0,0,0,1,1,5,0,5,5,0,no
5,2,0,0,0,0,1,1,5,0,5,5,0,no
5,2,0,0,0,0,1,1,5,0,5,5,0,no
5,2,0,0,0,0,1,1,5,0,5,5,0,no
5,2,0,0,0,0,1,1,5,0,5,5,0,no
5,2,0,0,0,0,1,1,5,0,5,5,0,no
5,2,0,0,0,0,1,1,5,0,5,5,0,no
5,2,0,0,0,0,1,1,5,0,5,5,0,no
5,2,0,0,0,0,1,1,5,0,5,5,0,no
5,2,0,0,0,0,1,1,5,0,5,5,0,no
5,2,0,0,0,0,1,1,5,0,5,5,0,no
5,2,0,0,0,0,1,1,5,0,5,5,0,no
6,2,1,1,1,0,1,1,6,0,6,6,0,no
5,2,0,0,0,0,1,1,5,0,5,5,0,no
3,2,0,0,0,0,1,1,3,0,3,3,0,no
0,2,0,0,0,0,1,1,0,0,0,0,0,no
6,3,1,1,0,0,1,1,6,0,6,6,0,no
3,0,0,0,0,0,1,1,3,0,3,3,0,no
6,2,2,1,1,0,1,1,6,0,6,6,0,no
6,2,2,1,1,0,1,1,6,0,6,6,0,no
5,1,1,1,1,0,1,1,5,0,5,5,0,no
5,0,1,1,1,0,1,1,5,0,5,5,0,no
3,0,0,0,0,0,1,1,3,0,3,3,0,no
5,0,1,1,1,0,1,1,5,0,5,5,0,no
3,0,0,0,0,0,1,1,3,0,3,3,0,no
7,1,2,1,2,0,1,1,7,0,7,7,0,no
7,1,2,1,2,0,1,1,7,0,7,7,0,no
8,0,0,0,0,1,1,1,8,0,8,8,0,no
3,1,0,0,0,0,1,1,3,0,3,3,0,no
53,3,13,2,0,1,1,1,53,0,53,53,0,no
12,1,2,1,1,4,1,1,12,0,12,12,0,no
13,3,3,1,0,2,1,1,13,0,13,13,0,no
13,3,3,1,0,2,1,1,13,0,13,13,0,no
13,3,3,1,0,2,1,1,13,0,13,13,0,no
7,0,0,0,0,1,1,1,7,0,7,7,0,no
3,1,0,0,0,0,1,1,3,0,3,3,0,no
15,2,4,1,1,1,1,1,15,0,15,15,0,no
11,1,2,1,3,3,1,1,11,0,11,11,0,no
7,0,0,0,0,1,1,1,7,0,7,7,0,no
3,1,0,0,0,0,1,1,3,0,3,3,0,no
9,1,2,1,2,2,1,1,9,0,9,9,0,no
6,1,1,1,1,1,1,1,6,0,6,6,0,no
7,0,0,0,0,1,1,1,7,0,7,7,0,no
12,3,2,1,1,0,1,1,12,0,12,12,0,no
16,1,4,1,1,2,1,1,16,0,16,16,0,no
10,1,2,1,3,2,1,1,10,0,10,10,0,no
11,2,1,1,1,3,1,1,11,0,11,11,0,no
32,2,8,3,4,6,1,1,32,0,32,32,0,no
28,1,7,3,4,6,1,1,28,0,28,28,0,no
8,0,0,0,0,1,1,1,8,0,8,8,0,no
3,1,0,0,0,0,1,1,3,0,3,3,0,no
34,1,10,2,1,2,1,1,34,0,34,34,0,no
7,1,1,1,2,1,1,1,7,0,7,7,0,no
7,0,0,0,0,1,1,1,7,0,7,7,0,no
8,1,0,0,0,0,1,1,8,0,8,8,0,no
8,1,0,0,0,0,1,1,8,0,8,8,0,no
8,1,0,0,0,0,1,1,8,0,8,8,0,no
8,1,0,0,0,0,1,1,8,0,8,8,0,no
8,1,0,0,0,0,1,1,8,0,8,8,0,no
7,1,2,1,2,0,1,1,7,0,7,7,0,no
5,0,1,1,1,0,1,1,5,0,5,5,0,no
5,0,1,1,1,0,1,1,5,0,5,5,0,no
5,0,1,1,1,0,1,1,5,0,5,5,0,no
5,0,1,1,1,0,1,1,5,0,5,5,0,no
5,0,1,1,1,0,1,1,5,0,5,5,0,no
16,0,7,1,0,0,1,1,16,0,16,16,0,no
16,0,6,1,0,0,1,1,16,0,16,16,0,no
8,0,2,1,1,0,1,1,8,0,8,8,0,no
20,0,7,2,0,0,1,1,20,0,20,20,0,no
4,1,0,0,0,0,1,1,4,0,4,4,0,no
3,0,0,0,0,0,1,1,3,0,3,3,0,no
3,0,0,0,0,0,1,1,3,0,3,3,0,no
3,0,0,0,0,0,1,1,3,0,3,3,0,no
3,1,0,0,0,0,1,1,3,0,3,3,0,no
2,0,0,0,1,0,1,1,2,0,2,2,0,no
3,1,0,0,0,0,1,1,3,0,3,3,0,no
3,2,0,0,0,0,1,1,3,0,3,3,0,no
3,1,0,0,0,0,1,1,3,0,3,3,0,no
15,3,4,1,3,3,1,1,15,0,15,15,0,no
8,2,0,0,0,0,1,1,8,0,8,8,0,no
8,2,0,0,0,0,1,1,8,0,8,8,0,no
8,2,0,0,0,0,1,1,8,0,8,8,0,no
6,2,1,1,1,0,1,1,6,0,6,6,0,no
8,2,0,0,0,0,1,1,8,0,8,8,0,no
8,2,0,0,0,0,1,1,8,0,8,8,0,no
8,2,0,0,0,0,1,1,8,0,8,8,0,no
8,2,0,0,0,0,1,1,8,0,8,8,0,no
8,2,0,0,0,0,1,1,8,0,8,8,0,no
8,2,0,0,0,0,1,1,8,0,8,8,0,no
8,2,0,0,0,0,1,1,8,0,8,8,0,no
8,2,0,0,0,0,1,1,8,0,8,8,0,no
8,2,0,0,0,0,1,1,8,0,8,8,0,no
8,2,0,0,0,0,1,1,8,0,8,8,0,no
8,2,0,0,0,0,1,1,8,0,8,8,0,no
8,2,0,0,0,0,1,1,8,0,8,8,0,no
8,2,0,0,0,0,1,1,8,0,8,8,0,no
8,2,0,0,0,0,1,1,8,0,8,8,0,no
8,2,0,0,0,0,1,1,8,0,8,8,0,no
6,2,1,1,1,0,1,1,6,0,6,6,0,no
8,2,0,0,0,0,1,1,8,0,8,8,0,no
8,2,0,0,0,0,1,1,8,0,8,8,0,no
10,1,2,1,3,2,1,1,10,0,10,10,0,no
0,2,0,0,0,0,1,1,0,0,0,0,0,no
3,0,0,0,0,0,1,1,3,0,3,3,0,no
20,2,5,2,2,2,1,1,20,0,20,20,0,no
10,1,2,1,3,2,1,1,10,0,10,10,0,no
0,2,0,0,0,0,1,1,0,0,0,0,0,no
3,0,0,0,0,0,1,1,3,0,3,3,0,no
8,2,2,1,0,2,1,1,8,0,8,8,0,no
0,2,0,0,0,0,1,1,0,0,0,0,0,no
0,2,0,0,0,0,1,1,0,0,0,0,0,no
0,2,0,0,0,0,1,1,0,0,0,0,0,no
0,2,0,0,0,0,1,1,0,0,0,0,0,no
0,2,0,0,0,0,1,1,0,0,0,0,0,no
0,2,0,0,0,0,1,1,0,0,0,0,0,no
46,3,15,2,0,0,1,1,46,0,46,46,0,no
3,0,0,0,0,0,1,1,3,0,3,3,0,no
5,2,1,1,1,0,1,1,5,0,5,5,0,no
5,2,1,1,1,0,1,1,5,0,5,5,0,no
5,2,1,1,1,0,1,1,5,0,5,5,0,no
5,2,1,1,1,0,1,1,5,0,5,5,0,no
5,2,1,1,1,0,1,1,5,0,5,5,0,no
5,2,1,1,1,0,1,1,5,0,5,5,0,no
3,2,0,0,0,0,1,1,3,0,3,3,0,no
5,2,1,1,1,0,1,1,5,0,5,5,0,no
5,2,1,1,1,0,1,1,5,0,5,5,0,no
5,2,1,1,1,0,1,1,5,0,5,5,0,no
5,2,1,1,1,0,1,1,5,0,5,5,0,no
3,2,0,0,0,0,1,1,3,0,3,3,0,no
3,2,0,0,0,0,1,1,3,0,3,3,0,no
5,2,1,1,1,0,1,1,5,0,5,5,0,no
5,2,1,1,1,0,1,1,5,0,5,5,0,no
5,2,1,1,1,0,1,1,5,0,5,5,0,no
5,2,1,1,1,0,1,1,5,0,5,5,0,no
3,2,0,0,0,0,1,1,3,0,3,3,0,no
3,2,0,0,0,0,1,1,3,0,3,3,0,no
5,2,1,1,1,0,1,1,5,0,5,5,0,no
5,2,1,1,1,0,1,1,5,0,5,5,0,no
5,2,1,1,1,0,1,1,5,0,5,5,0,no
5,2,1,1,1,0,1,1,5,0,5,5,0,no
3,2,0,0,0,0,1,1,3,0,3,3,0,no
3,2,0,0,0,0,1,1,3,0,3,3,0,no
5,2,1,1,1,0,1,1,5,0,5,5,0,no
5,2,1,1,1,0,1,1,5,0,5,5,0,no
5,2,1,1,1,0,1,1,5,0,5,5,0,no
5,2,1,1,1,0,1,1,5,0,5,5,0,no
3,2,0,0,0,0,1,1,3,0,3,3,0,no
5,2,1,1,1,0,1,1,5,0,5,5,0,no
5,2,1,1,1,0,1,1,5,0,5,5,0,no
5,2,1,1,1,0,1,1,5,0,5,5,0,no
5,2,1,1,1,0,1,1,5,0,5,5,0,no
5,2,1,1,1,0,1,1,5,0,5,5,0,no
5,2,1,1,1,0,1,1,5,0,5,5,0,no
4,0,0,0,1,1,1,1,4,0,4,4,0,no
4,2,0,0,1,1,1,1,4,0,4,4,0,no
3,0,0,0,0,0,1,1,3,0,3,3,0,no
3,2,0,0,0,0,1,1,3,0,3,3,0,no
3,0,0,0,0,0,1,1,3,0,3,3,0,no
4,0,0,0,0,0,1,1,4,0,4,4,0,no
4,2,0,0,0,0,1,1,4,0,4,4,0,no
3,1,0,0,0,0,1,1,3,0,3,3,0,no
3,2,0,0,0,0,1,1,3,0,3,3,0,no
12,3,4,1,1,0,1,1,12,0,12,12,0,no
3,2,0,0,0,0,1,1,3,0,3,3,0,no
2,0,0,0,0,0,1,1,2,0,2,2,0,no
2,2,0,0,0,0,1,1,2,0,2,2,0,no
2,0,0,0,0,0,1,1,2,0,2,2,0,no
3,0,0,0,0,0,1,1,3,0,3,3,0,no
3,2,0,0,0,0,1,1,3,0,3,3,0,no
28,0,4,3,2,5,1,1,28,0,28,28,0,no
4,1,0,0,0,1,1,1,4,0,4,4,0,no
9,2,1,1,1,1,1,1,9,0,9,9,0,no
33,1,9,3,2,4,1,1,33,0,33,33,0,no
9,0,1,1,1,1,1,1,9,0,9,9,0,no
3,1,0,0,0,0,1,1,3,0,3,3,0,no
3,2,0,0,0,0,1,1,3,0,3,3,0,no
9,2,1,1,0,1,1,1,9,0,9,9,0,no
8,4,1,1,0,0,1,1,8,0,8,8,0,no
3,1,0,0,0,0,1,1,3,0,3,3,0,no
3,2,0,0,0,0,1,1,3,0,3,3,0,no
3,3,0,0,0,0,1,1,3,0,3,3,0,no
3,1,0,0,0,0,1,1,3,0,3,3,0,no
3,0,0,0,0,0,1,1,3,0,3,3,0,no
3,0,0,0,0,0,1,1,3,0,3,3,0,no
3,1,1,0,0,0,1,1,3,0,3,3,0,no
5,1,0,0,0,0,1,1,5,0,5,5,0,no
5,3,0,0,0,0,1,1,5,0,5,5,0,no
38,5,9,3,3,5,1,1,38,0,38,38,0,no
5,3,1,1,1,0,1,1,5,0,5,5,0,no
7,1,2,1,2,0,1,1,7,0,7,7,0,no
3,1,0,0,0,0,1,1,3,0,3,3,0,no
5,0,1,1,1,0,1,1,5,0,5,5,0,no
3,1,0,0,0,0,1,1,3,0,3,3,0,no
5,1,1,1,1,0,1,1,5,0,5,5,0,no
19,2,4,2,5,4,1,1,19,0,19,19,0,no
5,1,0,0,0,0,1,1,5,0,5,5,0,no
6,0,0,0,0,0,1,1,6,0,6,6,0,no
11,3,2,1,2,1,1,1,11,0,11,11,0,no
11,0,3,1,2,0,1,1,11,0,11,11,0,no
3,2,0,0,0,0,1,1,3,0,3,3,0,no
30,2,10,2,6,2,1,1,30,0,30,30,0,no
5,0,1,1,1,0,1,1,5,0,5,5,0,no
3,2,0,0,0,0,1,1,3,0,3,3,0,no
14,2,3,2,2,1,1,1,14,0,14,14,0,no
37,2,8,2,6,7,2,2,37,0,36,18.5,1,no
28,2,5,1,5,5,1,1,28,0,28,28,0,no
13,0,3,3,0,0,1,1,13,0,13,13,0,no
4,2,0,0,0,0,1,1,4,0,4,4,0,no
12,1,6,1,5,1,1,1,12,0,12,12,0,no
5,0,2,0,0,1,1,1,5,0,5,5,0,no
13,1,4,1,2,1,1,1,13,0,13,13,0,no
3,0,0,0,0,0,1,1,3,0,3,3,0,no
3,0,0,0,0,0,1,1,3,0,3,3,0,no
3,0,0,0,0,0,1,1,3,0,3,3,0,no
3,1,0,0,0,0,1,1,3,0,3,3,0,no
3,1,0,0,0,0,1,1,3,0,3,3,0,no
3,0,0,0,0,0,1,1,3,0,3,3,0,no
3,0,0,0,0,0,1,1,3,0,3,3,0,no
3,0,0,0,0,0,1,1,3,0,3,3,0,no
3,0,0,0,0,0,1,1,3,0,3,3,0,no
3,0,0,0,0,0,1,1,3,0,3,3,0,no
3,0,0,0,0,0,1,1,3,0,3,3,0,no
6,1,1,1,0,0,1,1,6,0,6,6,0,no
3,1,0,0,0,0,1,1,3,0,3,3,0,no
3,1,0,0,0,0,1,1,3,0,3,3,0,no
3,1,0,0,0,0,1,1,3,0,3,3,0,no
3,1,0,0,0,0,1,1,3,0,3,3,0,no
3,3,0,0,0,0,1,1,3,0,3,3,0,no
3,2,0,0,0,0,1,1,3,0,3,3,0,no
3,4,0,0,0,0,1,1,3,0,3,3,0,no
3,1,0,0,0,0,1,1,3,0,3,3,0,no
3,2,0,0,0,0,1,1,3,0,3,3,0,no
3,1,0,0,0,0,1,1,3,0,3,3,0,no
3,0,0,0,0,0,1,1,3,0,3,3,0,no
3,1,0,0,0,0,1,1,3,0,3,3,0,no
3,1,0,0,0,0,1,1,3,0,3,3,0,no
5,3,0,0,0,0,1,1,5,0,5,5,0,no
2,0,0,0,0,0,1,1,2,0,2,2,0,no
3,0,0,0,0,0,1,1,3,0,3,3,0,no
3,0,0,0,0,0,1,1,3,0,3,3,0,no
5,1,1,1,1,0,1,1,5,0,5,5,0,no
5,4,1,1,1,0,1,1,5,0,5,5,0,no
3,2,0,0,0,0,1,1,3,0,3,3,0,no
56,5,11,2,8,4,2,2,57,1,56,29,1,no
5,2,1,1,1,0,1,1,5,0,5,5,0,no
5,5,1,1,1,0,1,1,5,0,5,5,0,no
3,1,0,0,0,0,1,1,3,0,3,3,0,no
3,4,0,0,0,0,1,1,3,0,3,3,0,no
3,3,0,0,0,0,1,1,3,0,3,3,0,no
3,1,0,0,0,0,1,1,3,0,3,3,0,no
3,2,0,0,0,0,1,1,3,0,3,3,0,no
3,1,0,0,0,0,1,1,3,0,3,3,0,no
3,1,0,0,0,0,1,1,3,0,3,3,0,no
3,1,0,0,0,0,1,1,3,0,3,3,0,no
3,3,0,0,0,0,1,1,3,0,3,3,0,no
3,0,0,0,0,0,1,1,3,0,3,3,0,no
16,6,2,2,0,0,1,1,16,0,16,16,0,no
9,4,0,0,0,0,1,1,9,0,9,9,0,no
17,0,3,1,3,2,1,1,17,0,17,17,0,no
26,2,7,1,7,2,1,1,26,0,26,26,0,no
3,0,0,0,0,0,1,1,3,0,3,3,0,no
3,0,0,0,0,0,1,1,3,0,3,3,0,no
3,0,0,0,0,0,1,1,3,0,3,3,0,no
3,0,0,0,0,0,1,1,3,0,3,3,0,no
3,1,0,0,0,0,1,1,3,0,3,3,0,no
75,2,20,3,7,8,1,1,75,0,75,75,0,no
3,0,0,0,0,0,1,1,3,0,3,3,0,no
16,0,4,1,4,1,1,1,16,0,16,16,0,no
4,1,0,0,0,0,1,1,4,0,4,4,0,no
7,0,1,1,0,0,1,1,7,0,7,7,0,no
3,1,0,0,0,0,1,1,3,0,3,3,0,no
3,2,0,0,0,0,1,1,3,0,3,3,0,no
3,0,0,0,0,0,1,1,3,0,3,3,0,no
3,0,0,0,0,0,1,1,3,0,3,3,0,no
3,0,0,0,0,0,1,1,3,0,3,3,0,no
0,0,0,0,1,0,1,1,0,0,0,0,0,no
0,0,0,0,1,0,1,1,0,0,0,0,0,no
0,0,0,0,1,0,1,1,0,0,0,0,0,no
0,5,0,0,1,0,1,1,0,0,0,0,0,no
0,4,0,0,1,0,1,1,0,0,0,0,0,no
0,4,0,0,1,0,1,1,0,0,0,0,0,no
0,2,0,0,1,0,1,1,0,0,0,0,0,no
0,1,0,0,1,0,1,1,0,0,0,0,0,no
0,4,0,0,1,0,1,1,0,0,0,0,0,no
0,5,0,0,1,0,1,1,0,0,0,0,0,no
0,5,0,0,1,0,1,1,0,0,0,0,0,no
0,4,0,0,1,0,1,1,0,0,0,0,0,no
0,2,0,0,1,0,1,1,0,0,0,0,0,no
0,3,0,0,1,0,1,1,0,0,0,0,0,no
0,1,0,0,1,0,1,1,0,0,0,0,0,no
0,2,0,0,1,0,1,1,0,0,0,0,0,no
0,1,0,0,1,0,1,1,0,0,0,0,0,no
0,3,0,0,1,0,1,1,0,0,0,0,0,no
0,4,0,0,1,0,1,1,0,0,0,0,0,no
0,2,0,0,1,0,1,1,0,0,0,0,0,no
0,3,0,0,1,0,1,1,0,0,0,0,0,no
0,3,0,0,1,0,1,1,0,0,0,0,0,no
0,2,0,0,1,0,1,1,0,0,0,0,0,no
8,11,0,0,0,0,1,1,8,0,8,8,0,no
37,0,6,3,1,11,3,3,38,1,36,13,1,no
9,1,1,1,1,4,1,1,9,0,9,9,0,no
21,1,2,1,0,6,4,4,22,1,19,5.75,1,no
3,5,0,0,0,0,1,1,3,0,3,3,0,no
5,8,0,0,0,0,1,1,5,0,5,5,0,no
34,0,4,2,2,7,5,4,36,2,33,7.6,1,no
10,1,3,2,1,1,1,1,10,0,10,10,0,no
16,5,3,2,1,5,4,3,17,1,14,4.5,1,no
3,1,0,0,0,0,1,1,3,0,3,3,0,no
14,5,2,1,2,2,2,2,15,1,15,8,0,no
3,2,0,0,0,0,2,2,4,1,3,2.5,1,no
5,1,0,0,0,0,2,2,6,1,5,3.5,1,no
5,1,0,0,0,0,2,2,6,1,5,3.5,1,no
3,2,0,0,0,0,1,1,3,0,3,3,0,no
3,2,0,0,0,0,1,1,3,0,3,3,0,no
25,2,5,4,1,2,2,2,25,0,23,12.5,1,no
11,1,4,1,2,1,2,2,12,1,11,6.5,1,no
5,0,1,1,0,0,1,1,5,0,5,5,1,no
3,1,0,0,0,0,1,1,3,0,3,3,0,no
12,0,3,3,0,2,1,1,12,0,12,12,0,no
9,3,1,1,0,1,1,1,9,0,9,9,0,no
11,1,2,2,0,3,1,1,11,0,11,11,0,no
10,1,1,1,0,1,1,1,10,0,10,10,0,no
3,0,0,0,0,0,1,1,3,0,3,3,1,no
4,1,0,0,0,1,1,1,4,0,4,4,0,no
14,6,2,1,0,0,1,1,14,0,14,14,0,no
6,2,0,0,0,0,1,1,6,0,6,6,0,no
3,3,0,0,0,0,1,1,3,0,3,3,0,no
29,0,3,3,3,15,2,2,30,1,29,15.5,0,no
35,1,1,1,0,6,2,2,35,0,20,17.5,0,no
3,0,0,0,0,0,1,1,3,0,3,3,0,no
3,0,0,0,0,0,1,1,3,0,3,3,0,no
3,0,0,0,0,0,1,1,3,0,3,3,0,no
5,0,1,1,1,0,1,1,5,0,5,5,0,no
6,0,1,1,2,0,1,1,6,0,6,6,0,no
3,0,0,0,0,0,1,1,3,0,3,3,0,no
3,0,0,0,0,0,1,1,3,0,3,3,0,no
3,0,0,0,0,0,1,1,3,0,3,3,0,no
3,0,0,0,0,0,1,1,3,0,3,3,0,no
3,0,0,0,0,0,1,1,3,0,3,3,0,no
3,0,0,0,0,0,1,1,3,0,3,3,0,no
3,0,0,0,0,0,1,1,3,0,3,3,0,no
3,0,0,0,0,0,1,1,3,0,3,3,0,no
3,0,0,0,0,0,1,1,3,0,3,3,0,no
3,0,0,0,0,0,1,1,3,0,3,3,0,no
3,0,0,0,0,0,1,1,3,0,3,3,0,no
5,0,1,1,0,0,1,1,5,0,5,5,0,no
4,2,0,0,0,0,1,1,4,0,4,4,0,no
10,0,2,1,0,1,2,2,11,1,10,6,0,no
9,7,0,0,0,0,1,1,9,0,9,9,0,no
8,0,3,1,3,0,1,1,8,0,8,8,0,no
3,0,0,0,0,0,1,1,3,0,3,3,0,no
3,0,0,0,0,0,1,1,3,0,3,3,1,no
3,0,0,0,0,0,1,1,3,0,3,3,1,no
3,2,0,0,0,0,1,1,3,0,3,3,0,no
3,1,0,0,0,0,1,1,3,0,3,3,0,no
3,1,0,0,0,0,1,1,3,0,3,3,1,no
38,0,13,2,10,4,2,2,39,1,38,20,0,no
5,2,0,0,0,0,1,1,5,0,5,5,0,no
8,1,2,1,2,1,1,1,8,0,8,8,0,no
3,0,0,0,0,0,1,1,3,0,3,3,0,no
3,0,0,0,0,0,1,1,3,0,3,3,0,no
3,0,0,0,0,0,1,1,3,0,3,3,0,no
8,0,2,1,2,1,1,1,8,0,8,8,0,no
3,1,0,0,0,0,1,1,3,0,3,3,1,no
3,2,0,0,0,0,1,1,3,0,3,3,1,no
3,1,0,0,0,0,1,1,3,0,3,3,0,no
3,2,0,0,0,0,1,1,3,0,3,3,0,no
3,1,0,0,0,0,1,1,3,0,3,3,1,no
3,2,0,0,0,0,1,1,3,0,3,3,1,no
3,1,0,0,0,0,1,1,3,0,3,3,1,no
3,2,0,0,0,0,1,1,3,0,3,3,1,no
3,1,0,0,0,0,1,1,3,0,3,3,0,no
3,2,0,0,0,0,1,1,3,0,3,3,0,no
3,1,0,0,0,0,1,1,3,0,3,3,0,no
3,2,0,0,0,0,1,1,3,0,3,3,0,no
4,2,0,0,0,0,1,1,4,0,4,4,0,no
43,3,8,2,1,7,1,1,43,0,43,43,0,no
0,3,0,0,0,0,1,1,0,0,0,0,0,no
3,2,0,0,0,0,1,1,3,0,3,3,0,no
20,3,5,1,1,0,1,1,20,0,20,20,0,no
4,2,0,0,0,0,1,1,4,0,4,4,0,no
5,2,0,0,0,1,2,2,6,1,6,3.5,0,no
9,2,1,1,1,2,5,4,19,10,12,5.8,1,no
3,1,0,0,0,0,1,1,3,0,3,3,0,no
8,0,1,1,1,1,5,4,17,9,12,5.2,1,no
3,1,0,0,0,0,1,1,3,0,3,3,0,no
3,0,0,0,0,0,1,1,3,0,3,3,0,no
3,0,0,0,0,0,1,1,3,0,3,3,0,no
3,0,0,0,0,0,1,1,3,0,3,3,0,no
9,2,0,0,1,0,2,2,10,1,10,5.5,0,no
9,2,0,0,1,0,2,1,10,1,10,5.5,0,no
3,2,0,0,0,0,1,1,3,0,3,3,0,no
17,3,5,1,1,0,1,1,17,0,17,17,0,no
3,2,0,0,0,0,1,1,3,0,3,3,0,no
0,3,0,0,0,0,1,1,0,0,0,0,0,no
0,2,0,0,0,0,1,1,0,0,0,0,0,no
0,2,0,0,0,0,1,1,0,0,0,0,0,no
0,1,0,0,0,0,5,3,18,18,16,7.2,1,no
0,3,0,0,0,0,1,1,0,0,0,0,0,no
0,1,0,0,0,0,1,1,0,0,0,0,0,no
0,2,0,0,0,0,1,1,0,0,0,0,0,no
0,2,0,0,0,0,1,1,0,0,0,0,0,no
0,2,0,0,0,0,1,1,0,0,0,0,0,no
0,1,0,0,0,0,1,1,0,0,0,0,0,no
3,2,0,0,0,0,1,1,3,0,3,3,0,no
20,3,5,1,1,0,1,1,20,0,20,20,0,no
3,0,0,0,0,0,1,1,3,0,3,3,0,no
20,2,2,2,0,1,1,1,20,0,20,20,0,no
17,0,2,2,0,1,1,1,17,0,17,17,0,no
3,1,0,0,0,0,1,1,3,0,3,3,0,no
3,0,0,0,0,0,1,1,3,0,3,3,0,no
3,1,0,0,0,0,1,1,3,0,3,3,0,no
3,2,0,0,0,0,1,1,3,0,3,3,0,no
34,3,6,3,2,1,1,1,34,0,34,34,1,no
4,2,0,0,0,0,1,1,4,0,4,4,0,no
11,5,2,1,0,1,1,1,11,0,11,11,0,no
3,0,0,0,0,0,1,1,3,0,3,3,0,no
3,0,0,0,0,0,1,1,3,0,3,3,0,no
3,0,0,0,0,0,1,1,3,0,3,3,0,no
3,0,0,0,0,0,1,1,3,0,3,3,0,no
0,0,0,0,1,0,1,1,0,0,0,0,0,no
0,1,0,0,1,0,1,1,0,0,0,0,0,no
0,0,0,0,1,0,1,1,0,0,0,0,0,no
0,1,0,0,1,0,1,1,0,0,0,0,0,no
0,3,0,0,1,0,1,1,0,0,0,0,0,no
0,0,0,0,1,0,1,1,0,0,0,0,0,no
0,1,0,0,1,0,1,1,0,0,0,0,0,no
0,0,0,0,1,0,1,1,0,0,0,0,0,no
0,0,0,0,1,0,1,1,0,0,0,0,0,no
0,0,0,0,1,0,1,1,0,0,0,0,0,no
0,2,0,0,1,0,1,1,0,0,0,0,0,no
0,2,0,0,1,0,1,1,0,0,0,0,0,no
0,2,0,0,1,0,1,1,0,0,0,0,0,no
0,1,0,0,1,0,1,1,0,0,0,0,0,no
0,1,0,0,1,0,1,1,0,0,0,0,0,no
0,2,0,0,1,0,1,1,0,0,0,0,0,no
0,1,0,0,1,0,1,1,0,0,0,0,0,no
4,1,0,0,0,0,2,2,5,1,4,3,0,no
11,2,1,1,0,0,4,2,17,6,12,5.75,0,no
8,0,1,1,0,0,3,2,21,13,21,11.333333,1,no
3,1,0,0,0,0,1,1,3,0,3,3,0,no
3,2,0,0,0,0,1,1,3,0,3,3,0,no
3,0,0,0,0,0,1,1,3,0,3,3,0,no
3,0,0,0,0,0,1,1,3,0,3,3,0,no
3,0,0,0,0,0,1,1,3,0,3,3,0,no
3,0,0,0,0,0,1,1,3,0,3,3,0,no
3,1,0,0,0,0,1,1,3,0,3,3,0,no
3,1,0,0,0,0,2,2,4,1,4,2.5,0,no
3,4,0,0,0,0,4,3,21,18,17,9.75,0,no
3,4,0,0,0,0,2,2,4,1,3,2.5,0,no
7,4,1,1,0,1,3,2,22,15,20,12.333333,1,no
35,2,9,4,2,4,3,3,35,0,29,11.666667,0,no
3,1,0,0,0,0,1,1,3,0,3,3,0,no
3,2,0,0,0,0,1,1,3,0,3,3,0,no
7,2,1,1,0,0,1,1,7,0,7,7,0,no
4,1,0,0,0,0,3,2,5,1,4,2,0,no
3,1,0,0,0,0,2,1,4,1,3,2.5,0,no
3,4,0,0,0,0,4,4,27,24,25,12.75,0,no
17,6,4,2,0,3,4,2,21,4,15,6.25,1,no
4,5,0,0,0,1,2,2,4,0,3,2,0,no
3,5,0,0,0,0,1,1,3,0,3,3,0,no
7,6,1,1,0,0,3,2,9,2,7,3.666667,0,no
3,4,0,0,0,0,3,3,5,2,3,2.333333,0,no
3,5,0,0,0,0,3,3,17,14,16,10.333333,0,no
15,2,3,2,2,2,2,2,16,1,15,8.5,0,no
9,3,1,1,0,2,3,3,11,2,10,4.333333,1,no
10,4,1,1,1,1,4,2,29,19,25,12,1,no
16,5,1,1,0,0,2,2,17,1,16,9,0,no
3,1,0,0,1,0,1,1,3,0,3,3,0,no
5,2,0,0,0,2,2,2,5,0,3,2.5,0,no
6,2,1,1,5,0,1,1,6,0,6,6,0,no
3,1,0,0,0,0,2,1,4,1,3,2.5,0,no
5,3,0,0,0,1,4,3,23,18,20,10.25,1,no
9,4,1,1,0,1,2,1,16,7,16,11.5,0,no
5,2,0,0,0,1,6,4,27,22,20,8.166667,1,no
38,4,10,6,6,4,3,1,39,1,33,13.333333,1,no
4,3,0,0,0,1,2,2,4,0,3,2,0,no
3,3,0,0,0,0,1,1,3,0,3,3,0,no
11,4,2,1,0,0,2,1,12,1,11,6.5,0,no
3,2,0,0,0,0,1,1,3,0,3,3,0,no
12,3,2,1,0,0,2,2,13,1,12,7,0,no
3,2,0,0,0,0,3,3,5,2,3,2.333333,1,no
3,2,0,0,0,0,1,1,3,0,3,3,0,no
5,1,0,0,0,1,1,1,5,0,5,5,0,no
12,3,0,0,0,2,1,1,12,0,12,12,0,no
32,2,7,2,0,1,3,2,32,0,27,10.666667,1,no
5,1,0,0,0,1,1,1,5,0,5,5,0,no
13,1,1,1,0,2,1,1,13,0,13,13,0,no
5,1,0,0,0,1,1,1,5,0,5,5,0,no
3,1,0,0,0,0,1,1,3,0,3,3,0,no
16,1,4,1,0,1,3,2,17,1,13,6,1,no
3,0,0,0,0,0,1,1,3,0,3,3,0,no
3,1,0,0,0,0,1,1,3,0,3,3,0,no
5,3,1,1,0,1,1,1,5,0,5,5,0,no
3,1,0,0,0,0,1,1,3,0,3,3,0,no
3,1,0,0,0,0,1,1,3,0,3,3,0,no
3,2,0,0,0,0,1,1,3,0,3,3,0,no
3,2,0,0,0,0,1,1,3,0,3,3,0,no
12,2,1,1,0,0,1,1,12,0,12,12,0,no
0,0,0,0,0,0,1,1,0,0,0,0,0,no
13,1,2,2,1,2,1,1,13,0,13,13,0,no
19,2,4,3,3,2,1,1,19,0,19,19,0,no
17,0,1,2,0,0,1,1,17,0,17,17,0,no
0,0,0,0,0,0,1,1,0,0,0,0,0,no
5,1,0,0,0,2,1,1,5,0,5,5,0,no
4,1,0,0,0,1,1,1,4,0,4,4,0,no
0,1,0,0,0,0,1,1,0,0,0,0,0,no
0,1,0,0,0,0,1,1,0,0,0,0,0,no
3,0,0,0,0,0,1,1,3,0,3,3,0,no
3,0,0,0,0,0,1,1,3,0,3,3,0,no
3,1,0,0,0,0,1,1,3,0,3,3,0,no
12,1,2,2,0,2,1,1,12,0,12,12,0,no
3,0,0,0,0,0,1,1,3,0,3,3,0,no
3,0,0,0,0,0,1,1,3,0,3,3,0,no
0,1,0,0,0,0,1,1,0,0,0,0,0,no
0,1,0,0,0,0,1,1,0,0,0,0,0,no
0,0,0,0,0,0,1,1,0,0,0,0,0,no
3,0,0,0,0,0,1,1,3,0,3,3,0,no
8,0,0,1,0,0,1,1,8,0,8,8,0,no
3,0,0,0,0,0,1,1,3,0,3,3,0,no
14,2,3,1,1,2,1,1,14,0,14,14,0,no
0,2,0,0,0,0,1,1,0,0,0,0,0,no
19,2,4,2,1,1,1,1,19,0,19,19,0,no
0,1,0,0,0,0,1,1,0,0,0,0,0,no
12,2,1,2,0,0,1,1,12,0,12,12,0,no
13,3,1,1,3,2,1,1,13,0,13,13,0,no
3,2,0,0,0,0,1,1,3,0,3,3,0,no
30,2,6,2,3,3,1,1,30,0,30,30,0,no
13,1,2,1,0,2,1,1,13,0,13,13,0,no
18,2,1,2,1,0,1,1,18,0,18,18,0,no
10,2,1,1,1,1,1,1,10,0,10,10,0,no
4,1,0,0,1,0,1,1,4,0,4,4,0,no
5,1,1,1,1,0,1,1,5,0,5,5,0,no
4,0,0,0,1,0,1,1,4,0,4,4,0,no
15,0,3,2,0,2,1,1,15,0,15,15,0,no
4,2,0,0,0,0,1,1,4,0,4,4,0,no
8,2,1,1,0,1,1,1,8,0,8,8,1,no
8,2,1,1,1,1,1,1,8,0,8,8,0,no
8,2,1,1,1,1,1,1,8,0,8,8,0,no
3,7,0,0,0,0,1,1,3,0,3,3,1,no
3,1,0,0,0,0,1,1,3,0,3,3,0,no
3,0,0,0,0,0,1,1,3,0,3,3,0,no
3,0,0,0,0,0,1,1,3,0,3,3,0,no
57,3,12,5,1,8,3,1,59,2,58,20.333333,1,no
13,1,2,1,1,3,1,1,13,0,13,13,0,no
12,3,2,1,1,2,1,1,12,0,12,12,0,no
0,3,0,0,0,0,1,1,0,0,0,0,1,no
3,1,0,0,0,0,1,1,3,0,3,3,0,no
11,2,2,1,1,1,1,1,11,0,11,11,0,no
8,2,0,1,0,0,1,1,8,0,8,8,0,no
4,2,0,0,1,0,1,1,4,0,4,4,0,no
5,1,1,1,0,1,1,1,5,0,5,5,0,no
2,2,0,0,0,0,1,1,2,0,2,2,1,no
10,2,3,1,2,0,1,1,10,0,10,10,0,no
3,2,0,0,0,0,1,1,3,0,3,3,0,no
6,2,1,1,0,0,1,1,6,0,6,6,0,no
10,2,2,1,0,1,1,1,10,0,10,10,0,no
10,1,2,1,0,1,1,1,10,0,10,10,0,no
9,7,0,0,0,0,1,1,9,0,9,9,1,no
10,1,2,1,1,0,1,1,10,0,10,10,0,no
15,1,2,1,1,2,1,1,15,0,15,15,0,no
3,0,0,0,0,0,1,1,3,0,3,3,0,no
3,0,0,0,0,0,1,1,3,0,3,3,0,no
10,1,2,2,0,0,1,1,10,0,10,10,0,no
10,1,3,3,0,0,1,1,10,0,10,10,0,no
20,1,3,1,0,2,3,2,20,0,18,6.666667,1,no
33,1,9,4,1,3,1,1,33,0,33,33,0,no
3,0,0,0,0,0,1,1,3,0,3,3,0,no
4,1,0,0,0,1,1,1,4,0,4,4,0,no
13,1,2,1,0,0,1,1,13,0,13,13,0,no
5,1,1,1,1,0,1,1,5,0,5,5,0,no
4,2,0,0,0,0,1,1,4,0,4,4,0,no
3,0,0,0,0,0,1,1,3,0,3,3,0,no
0,0,0,0,0,0,1,1,0,0,0,0,0,no
12,0,1,1,0,1,1,1,1,1,2,2,0,no
3,2,0,0,0,0,1,1,3,0,3,3,0,no
26,1,3,1,1,2,1,1,26,0,26,26,0,no
5,0,0,0,0,1,1,1,5,0,5,5,0,no
14,1,2,1,1,0,1,1,14,0,14,14,0,no
6,3,0,0,0,0,1,1,6,0,6,6,0,no
3,2,0,0,0,0,1,1,3,0,3,3,0,no
6,2,1,1,0,0,2,2,7,1,6,4,1,no
20,2,4,1,1,2,1,1,20,0,20,20,0,no
7,3,1,1,1,0,1,1,7,0,7,7,0,no
7,0,1,1,0,3,1,1,7,0,7,7,0,no
3,0,0,0,0,0,1,1,3,0,3,3,0,no
4,2,0,0,1,0,1,1,4,0,4,4,0,no
3,0,0,0,0,0,1,1,3,0,3,3,0,no
46,2,9,3,4,6,2,1,46,0,33,23,0,no
3,1,0,0,0,0,1,1,3,0,3,3,0,no
3,2,0,0,0,0,1,1,3,0,3,3,0,no
4,3,0,0,0,0,1,1,4,0,4,4,0,no
7,4,0,0,0,0,1,1,7,0,7,7,0,no
3,0,0,0,0,0,1,1,3,0,3,3,0,no
22,1,4,1,0,0,1,1,22,0,22,22,0,no
26,0,3,1,0,1,1,1,26,0,26,26,0,no
8,2,0,0,0,1,1,1,8,0,8,8,0,no
4,1,0,0,0,1,1,1,4,0,4,4,0,no
3,0,0,0,0,0,1,1,3,0,3,3,0,no
10,1,2,1,0,1,1,1,10,0,10,10,0,no
12,0,1,1,0,2,1,1,12,0,12,12,0,no
17,1,2,1,0,2,1,1,17,0,17,17,0,no
14,1,2,2,1,1,1,1,14,0,14,14,0,no
20,1,4,2,0,1,1,1,20,0,20,20,0,no
5,0,0,0,0,1,1,1,5,0,5,5,0,no
15,2,2,1,1,1,1,1,15,0,15,15,0,no
14,1,2,1,0,0,1,1,14,0,14,14,0,no
3,2,0,0,0,0,1,1,3,0,3,3,0,no
6,0,0,0,0,1,1,1,6,0,6,6,0,no
6,4,0,0,0,0,1,1,6,0,6,6,0,no
9,2,2,1,1,0,1,1,3,0,3,3,1,no
11,2,3,1,3,0,0,0,0,0,0,0,0,no
8,0,1,1,1,0,1,1,3,0,3,3,0,no
5,2,0,0,0,0,1,1,5,0,5,5,0,no
31,1,6,3,1,3,1,1,2,0,2,2,0,no
6,2,0,0,0,0,2,1,6,0,5,3,1,no
9,3,1,1,0,1,1,1,9,0,9,9,0,no
13,0,3,2,0,2,1,1,13,0,13,13,0,no
3,0,0,0,0,0,1,1,3,0,3,3,0,no
5,1,0,0,0,2,1,1,5,0,5,5,0,no
4,1,0,0,0,1,1,1,4,0,4,4,0,no
17,1,3,1,0,3,1,1,17,0,17,17,0,no
3,1,0,0,0,0,1,1,3,0,3,3,0,no
8,1,1,1,0,1,1,1,8,0,8,8,0,no
12,1,2,2,0,2,1,1,12,0,12,12,0,no
3,0,0,0,0,0,1,1,3,0,3,3,0,no
19,2,4,2,1,3,1,1,19,0,19,19,0,no
3,2,0,0,0,0,1,1,3,0,3,3,1,no
3,1,0,0,0,0,1,1,3,0,3,3,0,no
3,2,0,0,0,0,1,1,3,0,3,3,0,no
21,3,5,3,0,2,1,1,21,0,21,21,0,no
9,1,1,1,0,1,1,1,9,0,9,9,0,no
3,2,0,0,0,0,1,1,3,0,3,3,0,no
8,3,1,1,0,1,1,1,8,0,8,8,1,no
4,2,0,0,0,0,1,1,4,0,4,4,0,no
22,3,1,1,1,3,3,1,27,5,26,10.666667,1,no
12,3,2,2,0,2,2,1,66,54,66,60,0,no
14,3,2,2,0,2,1,1,14,0,14,14,1,no
3,2,0,0,0,0,1,1,3,0,3,3,0,no
5,2,0,0,0,0,3,1,10,5,9,5,1,no
3,2,0,0,0,0,1,1,3,0,3,3,0,no
6,0,0,0,0,1,1,1,6,0,6,6,0,no
5,2,0,0,0,0,1,1,5,0,5,5,0,no
30,3,4,1,0,3,1,1,30,0,30,30,0,no
13,0,3,2,0,2,1,1,13,0,13,13,0,no
3,0,0,0,0,0,1,1,3,0,3,3,0,no
4,1,0,0,0,1,1,1,4,0,4,4,0,no
3,1,0,0,0,0,1,1,3,0,3,3,0,no
17,1,3,1,0,3,1,1,17,0,17,17,0,no
3,1,0,0,0,0,1,1,3,0,3,3,0,no
17,1,3,3,0,2,1,1,17,0,17,17,0,no
3,0,0,0,0,0,1,1,3,0,3,3,0,no
9,2,1,1,1,1,1,1,9,0,9,9,0,no
3,1,0,0,0,0,1,1,3,0,3,3,0,no
3,2,0,0,0,0,1,1,3,0,3,3,0,no
21,3,5,3,0,2,1,1,21,0,21,21,0,no
9,1,1,1,0,1,1,1,9,0,9,9,0,no
10,3,1,1,0,3,1,1,10,0,10,10,1,no
23,1,2,2,0,3,1,1,23,0,23,23,1,no
8,2,1,1,0,0,1,1,8,0,8,8,1,no
3,2,0,0,0,0,1,1,3,0,3,3,1,no
8,1,1,1,0,0,1,1,8,0,8,8,0,no
4,2,0,0,0,0,3,1,5,1,4,2,1,no
3,3,0,0,0,0,1,1,3,0,3,3,0,no
3,7,0,0,0,0,1,1,3,0,3,3,1,no
3,0,0,0,0,0,1,1,3,0,3,3,0,no
6,1,1,1,0,0,1,1,6,0,6,6,0,no
7,3,1,1,0,0,2,1,47,40,47,43.5,0,no
9,1,1,1,1,2,2,1,18,9,18,13.5,0,no
14,3,2,2,0,2,1,1,14,0,14,14,1,no
6,1,1,1,0,0,2,1,7,1,7,4,0,no
4,2,0,0,0,0,1,1,4,0,4,4,1,no
8,2,1,1,0,0,1,1,8,0,8,8,0,no
4,7,0,0,0,0,1,1,4,0,4,4,1,no
9,1,2,2,2,0,1,1,9,0,9,9,0,no
12,1,1,1,0,1,1,1,12,0,12,12,0,no
12,0,1,1,0,1,1,1,12,0,12,12,0,no
10,1,2,2,0,0,1,1,10,0,10,10,0,no
5,1,1,1,0,0,1,1,5,0,5,5,0,no
5,1,1,1,0,0,1,1,5,0,5,5,0,no
3,2,0,0,0,0,1,1,3,0,3,3,0,no
6,0,0,0,0,1,2,1,6,0,5,3,0,no
8,1,1,1,1,0,1,1,8,0,8,8,0,no
3,0,0,0,0,0,1,1,3,0,3,3,0,no
3,0,0,0,0,0,1,1,3,0,3,3,0,no
5,0,0,0,0,1,1,1,5,0,5,5,0,no
14,0,0,0,0,0,1,1,14,0,14,14,0,no
0,0,0,0,0,0,1,1,0,0,0,0,0,no
2,2,0,0,0,0,1,1,2,0,2,2,0,no
2,2,0,0,0,0,1,1,2,0,2,2,0,no
3,0,0,0,0,0,1,1,3,0,3,3,0,no
3,0,0,0,0,0,1,1,3,0,3,3,0,no
3,1,0,0,0,0,1,1,3,0,3,3,1,no
3,0,0,0,0,0,1,1,3,0,3,3,0,no
4,1,0,0,0,1,1,1,4,0,4,4,0,no
0,3,0,0,1,0,1,1,0,0,0,0,0,no
0,1,0,0,1,0,1,1,0,0,0,0,0,no
6,1,1,1,0,1,2,1,7,1,6,4,0,no
6,3,1,1,0,1,2,1,7,1,6,4,0,no
8,1,2,2,0,1,2,1,9,1,8,5,0,no
6,0,1,1,0,1,2,1,7,1,6,4,0,no
0,1,0,0,1,0,1,1,0,0,0,0,0,no
0,0,0,0,1,0,1,1,0,0,0,0,0,no
0,2,0,0,1,0,1,1,0,0,0,0,0,no
0,2,0,0,1,0,1,1,0,0,0,0,0,no
12,2,0,0,0,0,1,1,12,0,12,12,0,no
3,3,0,0,0,0,1,1,3,0,3,3,0,no
16,4,2,1,2,0,1,1,16,0,16,16,0,no
3,3,0,0,0,0,2,2,4,1,3,2.5,0,no
33,7,5,3,2,2,1,1,33,0,33,33,0,no
3,4,0,0,0,0,1,1,3,0,3,3,0,no
3,0,0,0,0,0,1,1,3,0,3,3,0,no
2,2,0,0,1,0,1,1,2,0,2,2,0,no
2,2,0,0,1,0,1,1,2,0,2,2,0,no
5,2,1,1,1,0,1,1,5,0,5,5,0,no
5,2,1,1,1,0,1,1,5,0,5,5,0,no
3,2,0,0,0,0,1,1,3,0,3,3,0,no
3,2,0,0,0,0,1,1,3,0,3,3,0,no
6,2,1,1,1,0,1,1,6,0,6,6,0,no
5,2,1,1,1,0,1,1,5,0,5,5,0,no
9,0,2,2,0,0,1,1,9,0,9,9,0,no
7,1,1,1,0,0,1,1,7,0,7,7,0,no
7,2,1,1,0,0,1,1,7,0,7,7,0,no
7,1,1,1,0,0,1,1,7,0,7,7,0,no
4,2,0,0,0,0,1,1,4,0,4,4,0,no
3,0,0,0,0,0,1,1,3,0,3,3,0,no
3,1,0,0,0,0,1,1,3,0,3,3,0,no
3,2,0,0,0,0,1,1,3,0,3,3,0,no
3,0,0,0,0,0,1,1,3,0,3,3,0,no
3,1,0,0,0,0,1,1,3,0,3,3,0,no
3,1,0,0,0,0,1,1,3,0,3,3,0,no
11,2,2,1,0,1,1,1,11,0,11,11,0,no
3,1,0,0,0,0,1,1,3,0,3,3,0,no
18,1,5,2,2,2,1,1,18,0,18,18,0,no
7,0,1,1,0,1,1,1,7,0,7,7,0,no
14,1,2,1,4,1,1,1,14,0,14,14,0,no
3,2,0,0,0,0,1,1,3,0,3,3,0,no
10,3,1,1,2,0,1,1,10,0,10,10,0,no
6,1,1,1,4,1,1,1,6,0,6,6,0,no
3,0,0,0,0,0,1,1,3,0,3,3,0,no
3,0,0,0,0,0,1,1,3,0,3,3,0,no
3,0,0,0,0,0,1,1,3,0,3,3,0,no
3,0,0,0,0,0,1,1,3,0,3,3,0,no
3,0,0,0,0,0,1,1,3,0,3,3,0,no
3,0,0,0,0,0,1,1,3,0,3,3,1,no
3,0,0,0,0,0,1,1,3,0,3,3,0,no
3,1,0,0,0,0,1,1,3,0,3,3,0,no
5,0,0,0,0,1,1,1,5,0,5,5,0,no
2,0,0,0,1,0,1,1,2,0,2,2,0,no
3,1,0,0,0,0,1,1,3,0,3,3,0,no
3,0,0,0,0,0,1,1,3,0,3,3,0,no
3,0,0,0,0,0,1,1,3,0,3,3,0,no
3,1,0,0,0,0,1,1,3,0,3,3,0,no
4,2,0,0,0,0,1,1,4,0,4,4,0,no
3,0,0,0,0,0,1,1,3,0,3,3,0,no
3,2,0,0,0,0,1,1,3,0,3,3,0,no
3,0,0,0,0,0,1,1,3,0,3,3,0,no
8,2,3,2,4,3,1,1,8,0,8,8,0,no
3,1,0,0,0,0,1,1,3,0,3,3,0,no
11,1,2,2,1,3,2,2,12,1,11,6.5,1,no
0,3,0,0,1,0,1,1,0,0,0,0,0,no
3,1,0,0,0,0,1,1,3,0,3,3,0,no
4,2,0,0,0,0,1,1,4,0,4,4,0,no
4,3,0,0,0,0,1,1,4,0,4,4,0,no
4,2,0,0,0,0,1,1,4,0,4,4,0,no
45,2,18,18,0,0,5,2,45,0,25,9,1,no
3,0,0,0,0,0,1,1,3,0,3,3,0,no
3,1,0,0,0,0,1,1,3,0,3,3,0,no
3,1,0,0,0,0,1,1,3,0,3,3,0,no
3,1,0,0,0,0,1,1,3,0,3,3,0,no
4,1,0,0,0,0,2,2,5,1,4,3,0,no
8,1,2,1,2,2,1,1,8,0,8,8,0,no
3,0,0,0,0,0,1,1,3,0,3,3,0,no
3,1,0,0,0,0,1,1,3,0,3,3,0,no
3,1,0,0,0,0,1,1,3,0,3,3,0,no
3,2,0,0,0,0,1,1,3,0,3,3,0,no
3,1,0,0,0,0,1,1,3,0,3,3,0,no
3,1,0,0,0,0,1,1,3,0,3,3,0,no
3,1,0,0,0,0,1,1,3,0,3,3,0,no
3,1,0,0,0,0,1,1,3,0,3,3,0,no
3,1,0,0,0,0,1,1,3,0,3,3,0,no
3,1,0,0,0,0,1,1,3,0,3,3,1,no
3,1,0,0,0,0,1,1,3,0,3,3,0,no
3,1,0,0,0,0,1,1,3,0,3,3,0,no
3,1,0,0,0,0,1,1,3,0,3,3,0,no
3,2,0,0,0,0,1,1,3,0,3,3,1,no
3,1,0,0,0,0,1,1,3,0,3,3,0,no
3,1,0,0,0,0,1,1,3,0,3,3,0,no
3,1,0,0,0,0,1,1,3,0,3,3,0,no
3,1,0,0,0,0,1,1,3,0,3,3,0,no
3,1,0,0,0,0,1,1,3,0,3,3,0,no
3,1,0,0,0,0,1,1,3,0,3,3,0,no
3,2,0,0,0,0,1,1,3,0,3,3,0,no
2,0,0,0,0,0,1,1,2,0,2,2,1,no
3,0,0,0,0,0,1,1,3,0,3,3,1,no
2,1,0,0,1,0,1,1,2,0,2,2,1,no
60,1,0,0,84,0,14,2,64,4,32,4.857143,1,no
3,1,0,0,0,0,1,1,3,0,3,3,0,no
2,1,0,0,1,0,1,1,2,0,2,2,0,no
3,0,0,0,0,0,1,1,3,0,3,3,0,no
3,0,0,0,0,0,1,1,3,0,3,3,0,no
3,0,0,0,2,0,1,1,3,0,3,3,0,no
12,0,2,1,2,1,1,1,12,0,12,12,0,no
3,0,0,0,0,0,1,1,3,0,3,3,0,no
3,0,0,0,1,0,1,1,3,0,3,3,0,no
3,0,0,0,0,0,1,1,3,0,3,3,0,no
3,0,0,0,1,0,1,1,3,0,3,3,0,no
11,0,2,1,2,1,1,1,11,0,11,11,0,no
3,0,0,0,0,0,1,1,3,0,3,3,0,no
3,1,0,0,1,0,1,1,3,0,3,3,0,no
3,0,0,0,0,0,1,1,3,0,3,3,0,no
4,1,0,0,2,1,1,1,4,0,4,4,0,no
8,1,1,1,1,1,1,1,8,0,8,8,0,no
8,2,1,1,1,1,1,1,8,0,8,8,0,no
3,1,0,0,1,0,1,1,3,0,3,3,0,no
3,2,0,0,1,0,1,1,3,0,3,3,0,no
3,1,0,0,1,0,1,1,3,0,3,3,0,no
3,2,0,0,1,0,1,1,3,0,3,3,0,no
3,1,0,0,1,0,1,1,3,0,3,3,0,no
3,2,0,0,1,0,1,1,3,0,3,3,0,no
3,1,0,0,1,0,1,1,3,0,3,3,0,no
3,2,0,0,1,0,1,1,3,0,3,3,0,no
3,0,0,0,0,0,1,1,3,0,3,3,0,no
3,0,0,0,2,0,1,1,3,0,3,3,0,no
7,1,1,1,1,0,1,1,7,0,7,7,0,no
3,0,0,0,0,0,1,1,3,0,3,3,0,no
4,1,0,0,0,0,1,1,4,0,4,4,0,no
7,0,1,1,2,1,1,1,7,0,7,7,0,no
7,0,1,1,2,1,1,1,7,0,7,7,0,no
12,0,1,1,6,3,1,1,12,0,12,12,0,no
6,0,0,0,1,0,1,1,6,0,6,6,0,no
6,0,0,0,1,0,1,1,6,0,6,6,0,no
3,0,0,0,1,0,1,1,3,0,3,3,0,no
3,0,0,0,0,0,1,1,3,0,3,3,0,no
3,0,0,0,2,0,1,1,3,0,3,3,0,no
3,0,0,0,2,0,1,1,3,0,3,3,0,no
3,0,0,0,1,0,1,1,3,0,3,3,0,no
3,0,0,0,0,0,1,1,3,0,3,3,0,no
3,0,0,0,1,0,1,1,3,0,3,3,0,no
3,0,0,0,1,0,1,1,3,0,3,3,0,no
6,0,1,1,2,0,1,1,6,0,6,6,0,no
4,0,1,1,1,0,1,1,4,0,4,4,0,no
27,2,5,3,1,2,1,1,27,0,27,27,0,no
8,1,1,1,2,0,1,1,8,0,8,8,0,no
9,1,2,1,3,0,1,1,9,0,9,9,0,no
9,1,1,1,0,0,1,1,9,0,9,9,0,no
0,0,0,0,0,0,1,1,0,0,0,0,0,no
0,0,0,0,0,0,1,1,0,0,0,0,0,no
3,1,0,0,0,0,1,1,3,0,3,3,1,no
2,1,0,0,1,0,1,1,2,0,2,2,1,no
3,0,0,0,0,0,1,1,3,0,3,3,1,no
3,0,0,0,0,0,1,1,3,0,3,3,1,no
3,0,0,0,2,0,1,1,3,0,3,3,1,no
3,0,0,0,1,0,1,1,3,0,3,3,1,no
3,0,0,0,1,0,1,1,3,0,3,3,1,no
15,0,3,1,3,1,2,1,16,1,15,8.5,1,no
3,0,0,0,0,0,1,1,3,0,3,3,1,no
3,0,0,0,1,0,2,1,4,1,3,2.5,1,no
3,0,0,0,1,0,2,1,4,1,3,2.5,1,no
4,0,0,0,1,0,2,1,4,0,3,2,1,no
3,0,0,0,1,0,1,1,3,0,3,3,1,no
19,0,4,1,2,1,2,1,19,0,10,9.5,1,no
3,0,0,0,0,0,1,1,3,0,3,3,1,no
3,1,0,0,1,0,1,1,3,0,3,3,1,no
3,0,0,0,0,0,1,1,3,0,3,3,1,no
4,1,0,0,2,1,1,1,4,0,4,4,1,no
8,1,1,1,1,1,1,1,8,0,8,8,1,no
8,2,1,1,1,1,1,1,8,0,8,8,1,no
3,1,0,0,1,0,1,1,3,0,3,3,1,no
3,2,0,0,1,0,1,1,3,0,3,3,1,no
3,1,0,0,1,0,1,1,3,0,3,3,1,no
3,2,0,0,1,0,1,1,3,0,3,3,1,no
3,1,0,0,1,0,1,1,3,0,3,3,1,no
3,2,0,0,1,0,1,1,3,0,3,3,1,no
3,1,0,0,1,0,1,1,3,0,3,3,1,no
3,2,0,0,1,0,1,1,3,0,3,3,1,no
3,0,0,0,0,0,1,1,3,0,3,3,1,no
3,0,0,0,2,0,1,1,3,0,3,3,1,no
10,1,2,1,2,0,2,1,11,1,10,6,1,no
3,0,0,0,0,0,2,1,3,0,2,1.5,1,no
4,1,0,0,0,0,1,1,4,0,4,4,1,no
7,0,1,1,2,1,2,1,7,0,6,3.5,1,no
7,0,1,1,2,1,2,1,7,0,6,3.5,1,no
20,0,3,1,7,3,2,1,20,0,12,10,1,no
12,0,1,1,3,0,2,1,12,0,7,6,1,no
10,0,1,1,2,0,2,1,10,0,5,5,1,no
6,0,0,0,1,0,2,1,6,0,5,3,1,no
3,0,0,0,1,0,2,1,4,1,3,2.5,1,no
3,0,0,0,0,0,2,1,5,2,5,3.5,1,no
3,0,0,0,2,0,1,1,3,0,3,3,1,no
3,0,0,0,2,0,1,1,3,0,3,3,1,no
3,0,0,0,1,0,1,1,3,0,3,3,1,no
7,0,1,1,1,0,2,1,7,0,4,3.5,1,no
5,0,0,0,1,0,1,1,5,0,5,5,1,no
7,0,1,1,6,0,1,1,7,0,7,7,1,no
7,0,1,1,1,0,1,1,7,0,7,7,1,no
3,0,0,0,0,0,2,1,4,1,3,2.5,1,no
3,0,0,0,1,0,2,1,4,1,3,2.5,1,no
3,0,0,0,1,0,2,1,4,1,3,2.5,1,no
3,0,0,0,1,0,1,1,3,0,3,3,1,no
12,0,3,1,2,0,2,1,12,0,9,6,1,no
5,0,1,1,0,0,1,1,5,0,5,5,1,no
37,2,7,3,3,3,2,1,37,0,34,18.5,1,no
8,1,1,1,2,0,1,1,8,0,8,8,1,no
12,1,3,1,3,0,1,1,12,0,12,12,1,no
14,1,2,2,4,0,2,1,14,0,9,7,1,no
13,1,2,2,1,0,2,1,13,0,8,6.5,1,no
10,1,1,1,1,0,2,1,10,0,5,5,1,no
9,1,1,1,0,0,2,1,9,0,8,4.5,1,no
0,0,0,0,1,0,1,1,0,0,0,0,1,no
0,0,0,0,1,0,1,1,0,0,0,0,1,no
0,0,0,0,0,0,1,1,0,0,0,0,1,no
0,0,0,0,0,0,1,1,0,0,0,0,1,no
0,0,0,0,0,0,1,1,0,0,0,0,1,no
3,1,0,0,0,0,1,1,3,0,3,3,0,no
2,1,0,0,1,0,1,1,2,0,2,2,0,no
3,0,0,0,0,0,1,1,3,0,3,3,0,no
3,0,0,0,0,0,1,1,3,0,3,3,0,no
3,0,0,0,0,0,1,1,3,0,3,3,0,no
3,0,0,0,2,0,1,1,3,0,3,3,0,no
13,0,2,2,1,3,1,1,13,0,13,13,0,no
10,0,1,1,1,2,1,1,10,0,10,10,0,no
15,0,3,1,3,1,1,1,15,0,15,15,0,no
3,0,0,0,1,0,1,1,3,0,3,3,0,no
3,0,0,0,1,0,1,1,3,0,3,3,0,no
4,0,0,0,0,0,1,1,4,0,4,4,0,no
3,0,0,0,1,0,1,1,3,0,3,3,0,no
15,0,3,1,2,1,1,1,15,0,15,15,0,no
3,0,0,0,0,0,1,1,3,0,3,3,0,no
3,1,0,0,1,0,1,1,3,0,3,3,0,no
3,0,0,0,0,0,1,1,3,0,3,3,0,no
4,1,0,0,2,1,1,1,4,0,4,4,0,no
8,1,1,1,1,1,1,1,8,0,8,8,0,no
8,2,1,1,1,1,1,1,8,0,8,8,0,no
3,1,0,0,1,0,1,1,3,0,3,3,0,no
3,2,0,0,1,0,1,1,3,0,3,3,0,no
3,1,0,0,1,0,1,1,3,0,3,3,0,no
3,2,0,0,1,0,1,1,3,0,3,3,0,no
3,1,0,0,1,0,1,1,3,0,3,3,0,no
3,2,0,0,1,0,1,1,3,0,3,3,0,no
3,1,0,0,1,0,1,1,3,0,3,3,0,no
3,2,0,0,1,0,1,1,3,0,3,3,0,no
3,0,0,0,0,0,1,1,3,0,3,3,0,no
3,0,0,0,2,0,1,1,3,0,3,3,0,no
10,1,2,1,2,0,1,1,10,0,10,10,0,no
3,0,0,0,0,0,1,1,3,0,3,3,0,no
4,1,0,0,0,0,1,1,4,0,4,4,0,no
7,0,1,1,2,1,1,1,7,0,7,7,0,no
7,0,1,1,2,1,1,1,7,0,7,7,0,no
16,0,2,1,7,3,1,1,16,0,16,16,0,no
8,0,0,0,2,0,1,1,8,0,8,8,0,no
6,0,0,0,1,0,1,1,6,0,6,6,0,no
6,0,0,0,1,0,1,1,6,0,6,6,0,no
3,0,0,0,1,0,1,1,3,0,3,3,0,no
3,0,0,0,0,0,1,1,3,0,3,3,0,no
3,0,0,0,0,0,1,1,3,0,3,3,0,no
3,0,0,0,2,0,1,1,3,0,3,3,0,no
3,0,0,0,2,0,1,1,3,0,3,3,0,no
3,0,0,0,1,0,1,1,3,0,3,3,0,no
10,0,1,1,1,2,1,1,10,0,10,10,0,no
3,0,0,0,1,0,1,1,3,0,3,3,0,no
3,0,0,0,1,0,1,1,3,0,3,3,0,no
3,0,0,0,1,0,1,1,3,0,3,3,0,no
9,0,2,1,2,0,1,1,9,0,9,9,0,no
4,0,1,1,1,0,1,1,4,0,4,4,0,no
33,2,6,3,1,2,1,1,33,0,33,33,0,no
8,1,1,1,2,0,1,1,8,0,8,8,0,no
12,1,3,1,3,0,1,1,12,0,12,12,0,no
6,1,0,0,0,0,1,1,6,0,6,6,0,no
9,1,1,1,0,0,1,1,9,0,9,9,0,no
5,1,0,0,0,0,1,1,5,0,5,5,0,no
0,0,0,0,0,0,1,1,0,0,0,0,0,no
0,0,0,0,0,0,1,1,0,0,0,0,0,no
0,0,0,0,0,0,1,1,0,0,0,0,0,no
0,0,0,0,0,0,1,1,0,0,0,0,0,no
3,1,0,0,0,0,1,1,3,0,3,3,0,no
2,1,0,0,1,0,1,1,2,0,2,2,0,no
3,0,0,0,0,0,1,1,3,0,3,3,0,no
3,0,0,0,0,0,1,1,3,0,3,3,0,no
3,0,0,0,2,0,1,1,3,0,3,3,0,no
3,0,0,0,0,0,1,1,3,0,3,3,0,no
12,0,2,1,2,1,1,1,12,0,12,12,0,no
3,0,0,0,1,0,1,1,3,0,3,3,0,no
3,0,0,0,0,0,1,1,3,0,3,3,0,no
3,0,0,0,1,0,1,1,3,0,3,3,0,no
11,0,2,1,2,1,1,1,11,0,11,11,0,no
3,0,0,0,0,0,1,1,3,0,3,3,0,no
3,1,0,0,1,0,1,1,3,0,3,3,0,no
3,0,0,0,0,0,1,1,3,0,3,3,0,no
4,1,0,0,2,1,1,1,4,0,4,4,0,no
8,1,1,1,1,1,1,1,8,0,8,8,0,no
8,2,1,1,1,1,1,1,8,0,8,8,0,no
3,1,0,0,1,0,1,1,3,0,3,3,0,no
3,2,0,0,1,0,1,1,3,0,3,3,0,no
3,1,0,0,1,0,1,1,3,0,3,3,0,no
3,2,0,0,1,0,1,1,3,0,3,3,0,no
3,1,0,0,1,0,1,1,3,0,3,3,0,no
3,2,0,0,1,0,1,1,3,0,3,3,0,no
3,1,0,0,1,0,1,1,3,0,3,3,0,no
3,2,0,0,1,0,1,1,3,0,3,3,0,no
3,0,0,0,0,0,1,1,3,0,3,3,0,no
3,0,0,0,2,0,1,1,3,0,3,3,0,no
7,1,1,1,1,0,1,1,7,0,7,7,0,no
3,0,0,0,0,0,1,1,3,0,3,3,0,no
4,1,0,0,0,0,1,1,4,0,4,4,0,no
7,0,1,1,2,1,1,1,7,0,7,7,0,no
7,0,1,1,2,1,1,1,7,0,7,7,0,no
12,0,1,1,6,3,1,1,12,0,12,12,0,no
6,0,0,0,1,0,1,1,6,0,6,6,0,no
6,0,0,0,1,0,1,1,6,0,6,6,0,no
3,0,0,0,1,0,1,1,3,0,3,3,0,no
3,0,0,0,0,0,1,1,3,0,3,3,0,no
3,0,0,0,2,0,1,1,3,0,3,3,0,no
3,0,0,0,2,0,1,1,3,0,3,3,0,no
3,0,0,0,1,0,1,1,3,0,3,3,0,no
3,0,0,0,0,0,1,1,3,0,3,3,0,no
3,0,0,0,1,0,1,1,3,0,3,3,0,no
3,0,0,0,1,0,1,1,3,0,3,3,0,no
6,0,1,1,2,0,1,1,6,0,6,6,0,no
4,0,1,1,1,0,1,1,4,0,4,4,0,no
27,2,5,3,1,2,1,1,27,0,27,27,0,no
8,1,1,1,2,0,1,1,8,0,8,8,0,no
9,1,2,1,3,0,1,1,9,0,9,9,0,no
6,1,0,0,0,0,1,1,6,0,6,6,0,no
0,0,0,0,0,0,1,1,0,0,0,0,0,no
0,0,0,0,0,0,1,1,0,0,0,0,0,no
3,1,0,0,0,0,1,1,3,0,3,3,1,no
2,1,0,0,1,0,1,1,2,0,2,2,1,no
3,0,0,0,0,0,1,1,3,0,3,3,1,no
3,0,0,0,0,0,1,1,3,0,3,3,1,no
3,0,0,0,2,0,1,1,3,0,3,3,1,no
3,0,0,0,1,0,1,1,3,0,3,3,1,no
3,0,0,0,1,0,1,1,3,0,3,3,1,no
3,0,0,0,0,0,1,1,3,0,3,3,1,no
18,0,4,1,4,1,3,1,19,1,15,6.666667,1,no
3,0,0,0,0,0,1,1,3,0,3,3,1,no
3,0,0,0,1,0,2,1,4,1,3,2.5,1,no
3,0,0,0,1,0,2,1,4,1,3,2.5,1,no
3,0,0,0,1,0,1,1,3,0,3,3,1,no
5,0,0,0,1,0,3,1,5,0,3,1.666667,1,no
3,0,0,0,1,0,1,1,3,0,3,3,1,no
17,0,4,2,2,1,2,1,17,0,9,8.5,1,no
3,0,0,0,0,0,1,1,3,0,3,3,1,no
3,1,0,0,1,0,1,1,3,0,3,3,1,no
3,0,0,0,0,0,1,1,3,0,3,3,1,no
4,1,0,0,2,1,1,1,4,0,4,4,1,no
8,1,1,1,1,1,1,1,8,0,8,8,1,no
8,2,1,1,1,1,1,1,8,0,8,8,1,no
3,1,0,0,1,0,1,1,3,0,3,3,1,no
3,2,0,0,1,0,1,1,3,0,3,3,1,no
3,1,0,0,1,0,1,1,3,0,3,3,1,no
3,2,0,0,1,0,1,1,3,0,3,3,1,no
3,1,0,0,1,0,1,1,3,0,3,3,1,no
3,2,0,0,1,0,1,1,3,0,3,3,1,no
3,1,0,0,1,0,1,1,3,0,3,3,1,no
3,2,0,0,1,0,1,1,3,0,3,3,1,no
3,0,0,0,0,0,1,1,3,0,3,3,1,no
3,0,0,0,2,0,1,1,3,0,3,3,1,no
13,1,3,1,3,0,3,1,14,1,10,5,1,no
3,0,0,0,0,0,2,1,3,0,2,1.5,1,no
4,1,0,0,0,0,1,1,4,0,4,4,1,no
7,0,1,1,2,1,2,1,7,0,6,3.5,1,no
7,0,1,1,2,1,2,1,7,0,6,3.5,1,no
24,0,4,1,8,3,3,1,24,0,12,8,1,no
14,0,1,1,4,0,3,1,14,0,7,4.666667,1,no
10,0,1,1,2,0,2,1,10,0,5,5,1,no
6,0,0,0,1,0,2,1,6,0,5,3,1,no
6,0,0,0,1,0,1,1,6,0,6,6,1,no
3,0,0,0,1,0,2,1,4,1,3,2.5,1,no
3,0,0,0,0,0,2,1,5,2,5,3.5,1,no
3,0,0,0,2,0,1,1,3,0,3,3,1,no
3,0,0,0,2,0,1,1,3,0,3,3,1,no
3,0,0,0,1,0,1,1,3,0,3,3,1,no
7,0,1,1,1,0,2,1,7,0,4,3.5,1,no
5,0,0,0,1,0,1,1,5,0,5,5,1,no
7,0,1,1,6,0,1,1,7,0,7,7,1,no
7,0,1,1,1,0,1,1,7,0,7,7,1,no
3,0,0,0,0,0,2,1,4,1,3,2.5,1,no
3,0,0,0,0,0,1,1,3,0,3,3,1,no
3,0,0,0,1,0,2,1,4,1,3,2.5,1,no
3,0,0,0,1,0,2,1,4,1,3,2.5,1,no
3,0,0,0,1,0,1,1,3,0,3,3,1,no
3,0,0,0,1,0,1,1,3,0,3,3,1,no
11,0,3,2,1,0,2,1,11,0,8,5.5,1,no
5,0,1,1,0,0,1,1,5,0,5,5,1,no
14,1,2,2,4,0,2,1,14,0,9,7,1,no
43,2,8,3,3,3,3,1,43,0,34,14.333333,1,no
8,1,1,1,2,0,1,1,8,0,8,8,1,no
15,1,4,1,3,0,2,1,15,0,12,7.5,1,no
13,1,2,2,1,0,2,1,13,0,8,6.5,1,no
10,1,1,1,1,0,2,1,10,0,5,5,1,no
6,1,0,0,0,0,2,1,6,0,5,3,1,no
6,1,0,0,0,0,1,1,6,0,6,6,1,no
0,0,0,0,1,0,1,1,0,0,0,0,1,no
0,0,0,0,1,0,1,1,0,0,0,0,1,no
0,0,0,0,0,0,1,1,0,0,0,0,1,no
0,0,0,0,0,0,1,1,0,0,0,0,1,no
0,0,0,0,0,0,1,1,0,0,0,0,1,no
0,0,0,0,0,0,1,1,0,0,0,0,1,no
0,0,0,0,0,0,1,1,0,0,0,0,1,no
3,1,0,0,0,0,1,1,3,0,3,3,1,no
2,1,0,0,1,0,1,1,2,0,2,2,1,no
3,0,0,0,0,0,1,1,3,0,3,3,1,no
3,0,0,0,0,0,1,1,3,0,3,3,1,no
3,0,0,0,2,0,1,1,3,0,3,3,1,no
3,1,0,0,1,0,1,1,3,0,3,3,1,no
3,0,0,0,0,0,1,1,3,0,3,3,1,no
3,0,0,0,1,0,1,1,3,0,3,3,1,no
3,1,0,0,1,0,1,1,3,0,3,3,1,no
3,0,0,0,1,0,1,1,3,0,3,3,1,no
12,0,2,1,1,2,2,1,13,1,12,7,1,no
3,0,0,0,0,0,2,1,3,0,2,1.5,1,no
3,0,0,0,1,0,1,1,3,0,3,3,1,no
13,0,3,2,2,2,2,1,13,0,7,6.5,1,no
3,0,0,0,0,0,1,1,3,0,3,3,1,no
3,1,0,0,1,0,1,1,3,0,3,3,1,no
3,0,0,0,0,0,1,1,3,0,3,3,1,no
4,1,0,0,2,1,1,1,4,0,4,4,1,no
8,1,1,1,1,1,1,1,8,0,8,8,1,no
8,2,1,1,1,1,1,1,8,0,8,8,1,no
3,1,0,0,1,0,1,1,3,0,3,3,1,no
3,2,0,0,1,0,1,1,3,0,3,3,1,no
3,1,0,0,1,0,1,1,3,0,3,3,1,no
3,2,0,0,1,0,1,1,3,0,3,3,1,no
3,1,0,0,1,0,1,1,3,0,3,3,1,no
3,2,0,0,1,0,1,1,3,0,3,3,1,no
3,1,0,0,1,0,1,1,3,0,3,3,1,no
3,2,0,0,1,0,1,1,3,0,3,3,1,no
3,0,0,0,0,0,1,1,3,0,3,3,1,no
3,0,0,0,2,0,1,1,3,0,3,3,1,no
7,1,1,1,0,1,2,1,8,1,7,4.5,1,no
3,0,0,0,0,0,2,1,3,0,2,1.5,1,no
4,1,0,0,0,0,1,1,4,0,4,4,1,no
10,1,1,1,2,0,2,1,10,0,7,5,1,no
13,2,2,2,1,0,1,1,13,0,13,13,1,no
10,2,1,1,1,0,1,1,10,0,10,10,1,no
13,1,2,2,1,0,2,1,13,0,10,6.5,1,no
10,1,1,1,1,0,2,1,10,0,7,5,1,no
3,0,0,0,2,0,1,1,3,0,3,3,1,no
3,1,0,0,2,0,1,1,3,0,3,3,1,no
7,0,1,1,2,1,2,1,7,0,6,3.5,1,no
7,0,1,1,2,1,2,1,7,0,6,3.5,1,no
15,0,2,2,7,2,2,1,15,0,11,7.5,1,no
10,0,1,1,1,0,2,1,10,0,7,5,1,no
10,0,1,1,1,0,2,1,10,0,6,5,1,no
3,0,0,0,1,0,2,1,4,1,3,2.5,1,no
3,0,0,0,0,0,2,1,5,2,5,3.5,1,no
6,0,1,1,2,0,1,1,6,0,6,6,1,no
3,0,0,0,2,0,1,1,3,0,3,3,1,no
3,0,0,0,2,0,1,1,3,0,3,3,1,no
3,0,0,0,1,0,1,1,3,0,3,3,1,no
7,1,1,1,1,0,2,1,7,0,4,3.5,1,no
3,1,0,0,1,0,1,1,3,0,3,3,1,no
3,0,0,0,1,0,1,1,3,0,3,3,1,no
7,0,1,1,0,0,2,1,7,0,4,3.5,1,no
7,0,1,1,7,0,1,1,7,0,7,7,1,no
7,0,1,1,1,0,2,1,7,0,4,3.5,1,no
7,1,1,1,1,0,1,1,7,0,7,7,1,no
7,0,1,1,1,0,1,1,7,0,7,7,1,no
3,0,0,0,1,0,1,1,3,0,3,3,1,no
8,0,2,2,1,1,2,1,8,0,5,4,1,no
5,0,1,1,0,0,1,1,5,0,5,5,1,no
28,2,5,3,3,3,2,1,28,0,26,14,1,no
8,1,1,1,2,0,1,1,8,0,8,8,1,no
30,1,7,3,5,0,2,1,30,0,18,15,1,no
10,1,1,1,0,0,1,1,10,0,10,10,1,no
13,2,2,2,1,0,2,1,13,0,7,6.5,1,no
10,2,1,1,1,0,2,1,10,0,6,5,1,no
0,1,0,0,1,0,1,1,0,0,0,0,1,no
0,0,0,0,0,0,1,1,0,0,0,0,1,no
0,0,0,0,1,0,1,1,0,0,0,0,1,no
0,1,0,0,1,0,1,1,0,0,0,0,1,no
0,0,0,0,1,0,1,1,0,0,0,0,1,no
3,1,0,0,0,0,1,1,3,0,3,3,0,no
2,1,0,0,1,0,1,1,2,0,2,2,0,no
3,0,0,0,0,0,1,1,3,0,3,3,0,no
3,0,0,0,0,0,1,1,3,0,3,3,0,no
3,0,0,0,2,0,1,1,3,0,3,3,0,no
13,0,2,2,1,3,1,1,13,0,13,13,0,no
10,0,1,1,1,2,1,1,10,0,10,10,0,no
3,0,0,0,0,0,1,1,3,0,3,3,0,no
15,0,3,1,3,1,1,1,15,0,15,15,0,no
3,0,0,0,1,0,1,1,3,0,3,3,0,no
3,0,0,0,1,0,1,1,3,0,3,3,0,no
4,0,0,0,0,0,1,1,4,0,4,4,0,no
3,0,0,0,1,0,1,1,3,0,3,3,0,no
15,0,3,1,2,1,1,1,15,0,15,15,0,no
3,0,0,0,0,0,1,1,3,0,3,3,0,no
3,1,0,0,1,0,1,1,3,0,3,3,0,no
3,0,0,0,0,0,1,1,3,0,3,3,0,no
4,1,0,0,2,1,1,1,4,0,4,4,0,no
8,1,1,1,1,1,1,1,8,0,8,8,0,no
8,2,1,1,1,1,1,1,8,0,8,8,0,no
3,1,0,0,1,0,1,1,3,0,3,3,0,no
3,2,0,0,1,0,1,1,3,0,3,3,0,no
3,1,0,0,1,0,1,1,3,0,3,3,0,no
3,2,0,0,1,0,1,1,3,0,3,3,0,no
3,1,0,0,1,0,1,1,3,0,3,3,0,no
3,2,0,0,1,0,1,1,3,0,3,3,0,no
3,1,0,0,1,0,1,1,3,0,3,3,0,no
3,2,0,0,1,0,1,1,3,0,3,3,0,no
3,0,0,0,0,0,1,1,3,0,3,3,0,no
3,0,0,0,2,0,1,1,3,0,3,3,0,no
10,1,2,1,2,0,1,1,10,0,10,10,0,no
3,0,0,0,0,0,1,1,3,0,3,3,0,no
4,1,0,0,0,0,1,1,4,0,4,4,0,no
7,0,1,1,2,1,1,1,7,0,7,7,0,no
7,0,1,1,2,1,1,1,7,0,7,7,0,no
16,0,2,1,7,3,1,1,16,0,16,16,0,no
8,0,0,0,2,0,1,1,8,0,8,8,0,no
6,0,0,0,1,0,1,1,6,0,6,6,0,no
6,0,0,0,1,0,1,1,6,0,6,6,0,no
3,0,0,0,1,0,1,1,3,0,3,3,0,no
3,0,0,0,0,0,1,1,3,0,3,3,0,no
3,0,0,0,2,0,1,1,3,0,3,3,0,no
3,0,0,0,2,0,1,1,3,0,3,3,0,no
3,0,0,0,1,0,1,1,3,0,3,3,0,no
10,0,1,1,1,2,1,1,10,0,10,10,0,no
3,0,0,0,0,0,1,1,3,0,3,3,0,no
3,0,0,0,1,0,1,1,3,0,3,3,0,no
3,0,0,0,1,0,1,1,3,0,3,3,0,no
3,0,0,0,1,0,1,1,3,0,3,3,0,no
9,0,2,1,2,0,1,1,9,0,9,9,0,no
4,0,1,1,1,0,1,1,4,0,4,4,0,no
33,2,6,3,1,2,1,1,33,0,33,33,0,no
8,1,1,1,2,0,1,1,8,0,8,8,0,no
12,1,3,1,3,0,1,1,12,0,12,12,0,no
9,1,1,1,0,0,1,1,9,0,9,9,0,no
5,1,0,0,0,0,1,1,5,0,5,5,0,no
6,1,0,0,0,0,1,1,6,0,6,6,0,no
0,0,0,0,0,0,1,1,0,0,0,0,0,no
0,0,0,0,0,0,1,1,0,0,0,0,0,no
0,0,0,0,0,0,1,1,0,0,0,0,0,no
0,0,0,0,0,0,1,1,0,0,0,0,0,no
3,1,0,0,0,0,1,1,3,0,3,3,0,no
2,1,0,0,1,0,1,1,2,0,2,2,0,no
3,0,0,0,0,0,1,1,3,0,3,3,0,no
3,0,0,0,0,0,1,1,3,0,3,3,0,no
3,0,0,0,2,0,1,1,3,0,3,3,0,no
3,1,0,0,1,0,1,1,3,0,3,3,0,no
3,0,0,0,0,0,1,1,3,0,3,3,0,no
3,0,0,0,1,0,1,1,3,0,3,3,0,no
3,1,0,0,1,0,1,1,3,0,3,3,0,no
3,0,0,0,1,0,1,1,3,0,3,3,0,no
12,0,2,1,1,2,1,1,12,0,12,12,0,no
3,0,0,0,0,0,1,1,3,0,3,3,0,no
3,0,0,0,1,0,1,1,3,0,3,3,0,no
7,0,1,1,2,1,1,1,7,0,7,7,0,no
3,0,0,0,0,0,1,1,3,0,3,3,0,no
3,1,0,0,1,0,1,1,3,0,3,3,0,no
3,0,0,0,0,0,1,1,3,0,3,3,0,no
4,1,0,0,2,1,1,1,4,0,4,4,0,no
8,1,1,1,1,1,1,1,8,0,8,8,0,no
8,2,1,1,1,1,1,1,8,0,8,8,0,no
3,1,0,0,1,0,1,1,3,0,3,3,0,no
3,2,0,0,1,0,1,1,3,0,3,3,0,no
3,1,0,0,1,0,1,1,3,0,3,3,0,no
3,2,0,0,1,0,1,1,3,0,3,3,0,no
3,1,0,0,1,0,1,1,3,0,3,3,0,no
3,2,0,0,1,0,1,1,3,0,3,3,0,no
3,1,0,0,1,0,1,1,3,0,3,3,0,no
3,2,0,0,1,0,1,1,3,0,3,3,0,no
3,0,0,0,0,0,1,1,3,0,3,3,0,no
3,0,0,0,2,0,1,1,3,0,3,3,0,no
7,1,1,1,0,1,1,1,7,0,7,7,0,no
3,0,0,0,0,0,1,1,3,0,3,3,0,no
4,1,0,0,0,0,1,1,4,0,4,4,0,no
10,1,1,1,2,0,1,1,10,0,10,10,0,no
13,2,2,2,1,0,1,1,13,0,13,13,0,no
10,2,1,1,1,0,1,1,10,0,10,10,0,no
13,1,2,2,1,0,1,1,13,0,13,13,0,no
10,1,1,1,1,0,1,1,10,0,10,10,0,no
3,0,0,0,2,0,1,1,3,0,3,3,0,no
3,1,0,0,2,0,1,1,3,0,3,3,0,no
7,0,1,1,2,1,1,1,7,0,7,7,0,no
7,0,1,1,2,1,1,1,7,0,7,7,0,no
15,0,2,2,7,2,1,1,15,0,15,15,0,no
10,0,1,1,1,0,1,1,10,0,10,10,0,no
10,0,1,1,1,0,1,1,10,0,10,10,0,no
3,0,0,0,1,0,1,1,3,0,3,3,0,no
3,0,0,0,0,0,1,1,3,0,3,3,0,no
6,0,1,1,2,0,1,1,6,0,6,6,0,no
3,0,0,0,2,0,1,1,3,0,3,3,0,no
3,0,0,0,2,0,1,1,3,0,3,3,0,no
3,0,0,0,1,0,1,1,3,0,3,3,0,no
7,1,1,1,1,0,1,1,7,0,7,7,0,no
3,1,0,0,1,0,1,1,3,0,3,3,0,no
3,0,0,0,1,0,1,1,3,0,3,3,0,no
7,0,1,1,0,0,1,1,7,0,7,7,0,no
7,0,1,1,7,0,1,1,7,0,7,7,0,no
7,0,1,1,1,0,1,1,7,0,7,7,0,no
7,1,1,1,1,0,1,1,7,0,7,7,0,no
7,0,1,1,1,0,1,1,7,0,7,7,0,no
3,0,0,0,1,0,1,1,3,0,3,3,0,no
3,0,0,0,1,0,1,1,3,0,3,3,0,no
5,0,1,1,0,0,1,1,5,0,5,5,0,no
28,2,5,3,3,3,1,1,28,0,28,28,0,no
8,1,1,1,2,0,1,1,8,0,8,8,0,no
30,1,7,3,5,0,1,1,30,0,30,30,0,no
10,1,1,1,0,0,1,1,10,0,10,10,0,no
13,2,2,2,1,0,1,1,13,0,13,13,0,no
10,2,1,1,1,0,1,1,10,0,10,10,0,no
3,1,0,0,0,0,1,1,3,0,3,3,0,no
2,1,0,0,1,0,1,1,2,0,2,2,0,no
3,0,0,0,0,0,1,1,3,0,3,3,0,no
3,0,0,0,0,0,1,1,3,0,3,3,0,no
3,0,0,0,2,0,1,1,3,0,3,3,0,no
13,0,2,2,1,3,1,1,13,0,13,13,0,no
10,0,1,1,1,2,1,1,10,0,10,10,0,no
15,0,3,1,3,1,1,1,15,0,15,15,0,no
3,0,0,0,0,0,1,1,3,0,3,3,0,no
3,0,0,0,1,0,1,1,3,0,3,3,0,no
3,0,0,0,1,0,1,1,3,0,3,3,0,no
4,0,0,0,0,0,1,1,4,0,4,4,0,no
3,0,0,0,1,0,1,1,3,0,3,3,0,no
7,0,1,1,2,1,1,1,7,0,7,7,0,no
3,0,0,0,0,0,1,1,3,0,3,3,0,no
3,1,0,0,1,0,1,1,3,0,3,3,0,no
3,0,0,0,0,0,1,1,3,0,3,3,0,no
4,1,0,0,2,1,1,1,4,0,4,4,0,no
8,1,1,1,1,1,1,1,8,0,8,8,0,no
8,2,1,1,1,1,1,1,8,0,8,8,0,no
3,1,0,0,1,0,1,1,3,0,3,3,0,no
3,2,0,0,1,0,1,1,3,0,3,3,0,no
3,1,0,0,1,0,1,1,3,0,3,3,0,no
3,2,0,0,1,0,1,1,3,0,3,3,0,no
3,1,0,0,1,0,1,1,3,0,3,3,0,no
3,2,0,0,1,0,1,1,3,0,3,3,0,no
3,1,0,0,1,0,1,1,3,0,3,3,0,no
3,2,0,0,1,0,1,1,3,0,3,3,0,no
3,0,0,0,0,0,1,1,3,0,3,3,0,no
3,0,0,0,2,0,1,1,3,0,3,3,0,no
10,1,2,1,2,0,1,1,10,0,10,10,0,no
3,0,0,0,0,0,1,1,3,0,3,3,0,no
4,1,0,0,0,0,1,1,4,0,4,4,0,no
7,0,1,1,2,1,1,1,7,0,7,7,0,no
7,0,1,1,2,1,1,1,7,0,7,7,0,no
16,0,2,1,7,3,1,1,16,0,16,16,0,no
8,0,0,0,2,0,1,1,8,0,8,8,0,no
6,0,0,0,1,0,1,1,6,0,6,6,0,no
6,0,0,0,1,0,1,1,6,0,6,6,0,no
3,0,0,0,1,0,1,1,3,0,3,3,0,no
3,0,0,0,0,0,1,1,3,0,3,3,0,no
3,0,0,0,2,0,1,1,3,0,3,3,0,no
3,0,0,0,2,0,1,1,3,0,3,3,0,no
3,0,0,0,1,0,1,1,3,0,3,3,0,no
10,0,1,1,1,2,1,1,10,0,10,10,0,no
3,0,0,0,0,0,1,1,3,0,3,3,0,no
3,0,0,0,1,0,1,1,3,0,3,3,0,no
3,0,0,0,1,0,1,1,3,0,3,3,0,no
3,0,0,0,1,0,1,1,3,0,3,3,0,no
3,0,0,0,1,0,1,1,3,0,3,3,0,no
4,0,1,1,1,0,1,1,4,0,4,4,0,no
33,2,6,3,1,2,1,1,33,0,33,33,0,no
8,1,1,1,2,0,1,1,8,0,8,8,0,no
12,1,3,1,3,0,1,1,12,0,12,12,0,no
9,1,1,1,0,0,1,1,9,0,9,9,0,no
5,1,0,0,0,0,1,1,5,0,5,5,0,no
9,1,1,1,0,0,1,1,9,0,9,9,0,no
0,0,0,0,0,0,1,1,0,0,0,0,0,no
0,0,0,0,0,0,1,1,0,0,0,0,0,no
0,0,0,0,0,0,1,1,0,0,0,0,0,no
0,0,0,0,0,0,1,1,0,0,0,0,0,no
0,1,0,0,1,0,1,1,0,0,0,0,0,no
0,0,0,0,0,0,1,1,0,0,0,0,0,no
0,0,0,0,1,0,1,1,0,0,0,0,0,no
0,1,0,0,1,0,1,1,0,0,0,0,0,no
0,0,0,0,1,0,1,1,0,0,0,0,0,no
3,1,0,0,0,0,1,1,3,0,3,3,1,no
2,1,0,0,1,0,1,1,2,0,2,2,1,no
3,0,0,0,0,0,1,1,3,0,3,3,1,no
3,0,0,0,0,0,1,1,3,0,3,3,1,no
3,0,0,0,0,0,1,1,3,0,3,3,1,no
3,0,0,0,2,0,1,1,3,0,3,3,1,no
3,0,0,0,1,0,1,1,3,0,3,3,0,no
3,0,0,0,1,0,1,1,3,0,3,3,0,no
3,0,0,0,1,0,1,1,3,0,3,3,1,no
3,0,0,0,1,0,1,1,3,0,3,3,1,no
21,0,5,1,5,1,3,1,22,1,18,7.666667,1,no
3,0,0,0,0,0,1,1,3,0,3,3,1,no
3,0,0,0,1,0,2,1,4,1,3,2.5,1,no
3,0,0,0,1,0,1,1,3,0,3,3,0,no
3,0,0,0,1,0,2,1,4,1,3,2.5,1,no
3,0,0,0,1,0,2,1,4,1,3,2.5,1,no
6,0,0,0,2,0,3,1,6,0,3,2,1,no
3,0,0,0,1,0,1,1,3,0,3,3,1,no
17,0,4,2,2,1,2,1,17,0,9,8.5,1,no
3,0,0,0,0,0,1,1,3,0,3,3,1,no
3,1,0,0,1,0,1,1,3,0,3,3,1,no
3,0,0,0,0,0,1,1,3,0,3,3,1,no
4,1,0,0,2,1,1,1,4,0,4,4,1,no
8,1,1,1,1,1,1,1,8,0,8,8,1,no
8,2,1,1,1,1,1,1,8,0,8,8,1,no
3,1,0,0,1,0,1,1,3,0,3,3,1,no
3,2,0,0,1,0,1,1,3,0,3,3,1,no
3,1,0,0,1,0,1,1,3,0,3,3,1,no
3,2,0,0,1,0,1,1,3,0,3,3,1,no
3,1,0,0,1,0,1,1,3,0,3,3,1,no
3,2,0,0,1,0,1,1,3,0,3,3,1,no
3,1,0,0,1,0,1,1,3,0,3,3,1,no
3,2,0,0,1,0,1,1,3,0,3,3,1,no
3,0,0,0,0,0,1,1,3,0,3,3,1,no
3,0,0,0,2,0,1,1,3,0,3,3,1,no
16,1,4,1,4,0,3,1,17,1,13,6,1,no
3,0,0,0,0,0,2,1,3,0,2,1.5,1,no
4,1,0,0,0,0,1,1,4,0,4,4,1,no
7,0,1,1,2,1,2,1,7,0,6,3.5,1,no
7,0,1,1,2,1,2,1,7,0,6,3.5,1,no
32,0,6,1,9,3,3,1,32,0,16,10.666667,1,no
20,0,2,1,6,0,3,1,20,0,7,6.666667,1,no
6,0,0,0,1,0,2,1,6,0,5,3,1,no
10,0,1,1,2,0,1,1,10,0,10,10,0,no
10,0,1,1,2,0,2,1,10,0,5,5,1,no
6,0,0,0,1,0,2,1,6,0,5,3,1,no
3,0,0,0,1,0,2,1,4,1,3,2.5,1,no
3,0,0,0,0,0,2,1,5,2,5,3.5,1,no
3,0,0,0,0,0,2,1,4,1,3,2.5,1,no
3,0,0,0,2,0,1,1,3,0,3,3,1,no
3,0,0,0,2,0,1,1,3,0,3,3,1,no
3,0,0,0,1,0,1,1,3,0,3,3,1,no
7,0,1,1,1,0,1,1,7,0,7,7,0,no
5,0,0,0,1,0,1,1,5,0,5,5,0,no
7,0,1,1,6,0,1,1,7,0,7,7,0,no
7,0,1,1,1,0,1,1,7,0,7,7,0,no
7,0,1,1,1,0,2,1,7,0,4,3.5,1,no
5,0,0,0,1,0,1,1,5,0,5,5,1,no
7,0,1,1,6,0,1,1,7,0,7,7,1,no
7,0,1,1,1,0,1,1,7,0,7,7,1,no
3,0,0,0,0,0,2,1,4,1,3,2.5,1,no
3,0,0,0,1,0,2,1,4,1,3,2.5,1,no
3,0,0,0,1,0,1,1,3,0,3,3,0,no
3,0,0,0,1,0,2,1,4,1,3,2.5,1,no
3,0,0,0,1,0,2,1,4,1,3,2.5,1,no
3,0,0,0,1,0,1,1,3,0,3,3,1,no
11,0,3,2,1,0,2,1,11,0,8,5.5,1,no
6,0,1,1,0,0,2,1,6,0,5,3,1,no
53,2,10,3,5,4,3,1,53,0,39,17.666667,1,no
8,1,1,1,2,0,1,1,8,0,8,8,1,no
18,1,5,1,3,0,2,1,18,0,15,9,1,no
14,1,2,2,4,0,1,1,14,0,14,14,0,no
14,1,2,2,4,0,2,1,14,0,9,7,1,no
9,1,1,1,0,0,2,1,9,0,8,4.5,1,no
13,1,2,2,1,0,1,1,13,0,13,13,0,no
10,1,1,1,1,0,1,1,10,0,10,10,0,no
13,1,2,2,1,0,2,1,13,0,8,6.5,1,no
10,1,1,1,1,0,2,1,10,0,5,5,1,no
9,1,1,1,0,0,2,1,9,0,8,4.5,1,no
3,1,0,0,0,0,1,1,3,0,3,3,0,no
2,1,0,0,1,0,1,1,2,0,2,2,0,no
3,0,0,0,0,0,1,1,3,0,3,3,0,no
3,0,0,0,0,0,1,1,3,0,3,3,0,no
3,0,0,0,2,0,1,1,3,0,3,3,0,no
13,0,2,2,1,3,1,1,13,0,13,13,0,no
10,0,1,1,1,2,1,1,10,0,10,10,0,no
3,0,0,0,1,0,1,1,3,0,3,3,0,no
3,0,0,0,1,0,1,1,3,0,3,3,0,no
15,0,3,1,3,1,1,1,15,0,15,15,0,no
3,0,0,0,1,0,1,1,3,0,3,3,0,no
3,0,0,0,1,0,1,1,3,0,3,3,0,no
4,0,0,0,1,0,1,1,4,0,4,4,0,no
3,0,0,0,1,0,1,1,3,0,3,3,0,no
7,0,1,1,2,1,1,1,7,0,7,7,0,no
3,0,0,0,0,0,1,1,3,0,3,3,0,no
3,1,0,0,1,0,1,1,3,0,3,3,0,no
3,0,0,0,0,0,1,1,3,0,3,3,0,no
4,1,0,0,2,1,1,1,4,0,4,4,0,no
8,1,1,1,1,1,1,1,8,0,8,8,0,no
8,2,1,1,1,1,1,1,8,0,8,8,0,no
3,1,0,0,1,0,1,1,3,0,3,3,0,no
3,2,0,0,1,0,1,1,3,0,3,3,0,no
3,1,0,0,1,0,1,1,3,0,3,3,0,no
3,2,0,0,1,0,1,1,3,0,3,3,0,no
3,1,0,0,1,0,1,1,3,0,3,3,0,no
3,2,0,0,1,0,1,1,3,0,3,3,0,no
3,1,0,0,1,0,1,1,3,0,3,3,0,no
3,2,0,0,1,0,1,1,3,0,3,3,0,no
3,0,0,0,0,0,1,1,3,0,3,3,0,no
3,0,0,0,2,0,1,1,3,0,3,3,0,no
10,1,2,1,2,0,1,1,10,0,10,10,0,no
3,0,0,0,0,0,1,1,3,0,3,3,0,no
4,1,0,0,0,0,1,1,4,0,4,4,0,no
7,0,1,1,2,1,1,1,7,0,7,7,0,no
7,0,1,1,2,1,1,1,7,0,7,7,0,no
20,0,3,1,7,3,1,1,20,0,20,20,0,no
12,0,1,1,3,0,1,1,12,0,12,12,0,no
6,0,0,0,1,0,1,1,6,0,6,6,0,no
10,0,1,1,2,0,1,1,10,0,10,10,0,no
3,0,0,0,1,0,1,1,3,0,3,3,0,no
3,0,0,0,0,0,1,1,3,0,3,3,0,no
3,0,0,0,2,0,1,1,3,0,3,3,0,no
3,0,0,0,2,0,1,1,3,0,3,3,0,no
3,0,0,0,1,0,1,1,3,0,3,3,0,no
10,0,1,1,1,2,1,1,10,0,10,10,0,no
7,0,1,1,1,0,1,1,7,0,7,7,0,no
5,0,0,0,1,0,1,1,5,0,5,5,0,no
7,0,1,1,6,0,1,1,7,0,7,7,0,no
7,0,1,1,1,0,1,1,7,0,7,7,0,no
3,0,0,0,1,0,1,1,3,0,3,3,0,no
3,0,0,0,1,0,1,1,3,0,3,3,0,no
3,0,0,0,1,0,1,1,3,0,3,3,0,no
3,0,0,0,1,0,1,1,3,0,3,3,0,no
5,0,1,1,0,0,1,1,5,0,5,5,0,no
37,2,7,3,3,3,1,1,37,0,37,37,0,no
8,1,1,1,2,0,1,1,8,0,8,8,0,no
12,1,3,1,3,0,1,1,12,0,12,12,0,no
14,1,2,2,4,0,1,1,14,0,14,14,0,no
9,1,1,1,0,0,1,1,9,0,9,9,0,no
5,1,0,0,0,0,1,1,5,0,5,5,0,no
13,1,2,2,1,0,1,1,13,0,13,13,0,no
10,1,1,1,1,0,1,1,10,0,10,10,0,no
0,0,0,0,0,0,1,1,0,0,0,0,0,no
0,0,0,0,1,0,1,1,0,0,0,0,0,no
0,0,0,0,1,0,1,1,0,0,0,0,0,no
0,0,0,0,0,0,1,1,0,0,0,0,0,no
0,0,0,0,0,0,1,1,0,0,0,0,0,no
0,0,0,0,0,0,1,1,0,0,0,0,1,no
0,0,0,0,1,0,1,1,0,0,0,0,0,no
0,0,0,0,1,0,1,1,0,0,0,0,0,no
0,0,0,0,1,0,1,1,0,0,0,0,1,no
0,0,0,0,1,0,1,1,0,0,0,0,1,no
0,0,0,0,0,0,1,1,0,0,0,0,1,no
0,0,0,0,0,0,1,1,0,0,0,0,1,no
0,0,0,0,0,0,1,1,0,0,0,0,0,no
0,0,0,0,0,0,1,1,0,0,0,0,1,no
0,0,0,0,0,0,1,1,0,0,0,0,1,no
3,1,0,0,0,0,1,1,3,0,3,3,1,no
2,1,0,0,1,0,1,1,2,0,2,2,1,no
3,0,0,0,0,0,1,1,3,0,3,3,1,no
3,0,0,0,0,0,1,1,3,0,3,3,1,no
3,0,0,0,2,0,1,1,3,0,3,3,1,no
3,0,0,0,0,0,1,1,3,0,3,3,1,no
3,1,0,0,1,0,1,1,3,0,3,3,1,no
3,0,0,0,0,0,1,1,3,0,3,3,1,no
3,0,0,0,1,0,1,1,3,0,3,3,1,no
3,1,0,0,1,0,1,1,3,0,3,3,1,no
3,0,0,0,1,0,1,1,3,0,3,3,1,no
15,0,3,1,2,2,2,1,16,1,15,8.5,1,no
3,0,0,0,1,0,2,1,4,1,3,2.5,1,no
4,0,0,0,0,0,2,1,4,0,2,2,1,no
3,0,0,0,1,0,1,1,3,0,3,3,1,no
13,0,3,2,2,2,2,1,13,0,7,6.5,1,no
3,0,0,0,0,0,1,1,3,0,3,3,1,no
3,1,0,0,1,0,1,1,3,0,3,3,1,no
3,0,0,0,0,0,1,1,3,0,3,3,1,no
4,1,0,0,2,1,1,1,4,0,4,4,1,no
8,1,1,1,1,1,1,1,8,0,8,8,1,no
8,2,1,1,1,1,1,1,8,0,8,8,1,no
3,1,0,0,1,0,1,1,3,0,3,3,1,no
3,2,0,0,1,0,1,1,3,0,3,3,1,no
3,1,0,0,1,0,1,1,3,0,3,3,1,no
3,2,0,0,1,0,1,1,3,0,3,3,1,no
3,1,0,0,1,0,1,1,3,0,3,3,1,no
3,2,0,0,1,0,1,1,3,0,3,3,1,no
3,1,0,0,1,0,1,1,3,0,3,3,1,no
3,2,0,0,1,0,1,1,3,0,3,3,1,no
3,0,0,0,0,0,1,1,3,0,3,3,1,no
3,0,0,0,2,0,1,1,3,0,3,3,1,no
10,1,2,1,1,1,2,1,11,1,10,6,1,no
3,0,0,0,0,0,2,1,3,0,2,1.5,1,no
4,1,0,0,0,0,1,1,4,0,4,4,1,no
10,1,1,1,2,0,2,1,10,0,7,5,1,no
13,2,2,2,1,0,1,1,13,0,13,13,1,no
10,2,1,1,1,0,1,1,10,0,10,10,1,no
13,1,2,2,1,0,2,1,13,0,10,6.5,1,no
10,1,1,1,1,0,2,1,10,0,7,5,1,no
3,0,0,0,2,0,1,1,3,0,3,3,1,no
3,1,0,0,2,0,1,1,3,0,3,3,1,no
7,0,1,1,2,1,2,1,7,0,6,3.5,1,no
7,0,1,1,2,1,2,1,7,0,6,3.5,1,no
21,0,3,2,8,3,2,1,21,0,11,10.5,1,no
12,0,1,1,2,0,2,1,12,0,7,6,1,no
6,0,0,0,1,0,2,1,6,0,5,3,1,no
10,0,1,1,1,0,2,1,10,0,6,5,1,no
3,0,0,0,1,0,2,1,4,1,3,2.5,1,no
3,0,0,0,0,0,2,1,5,2,5,3.5,1,no
6,0,1,1,2,0,1,1,6,0,6,6,1,no
3,0,0,0,2,0,1,1,3,0,3,3,1,no
3,0,0,0,2,0,1,1,3,0,3,3,1,no
3,0,0,0,1,0,1,1,3,0,3,3,1,no
3,0,0,0,0,0,2,1,4,1,3,2.5,1,no
7,1,1,1,1,0,2,1,7,0,4,3.5,1,no
3,1,0,0,1,0,1,1,3,0,3,3,1,no
3,0,0,0,1,0,1,1,3,0,3,3,1,no
7,0,1,1,0,0,2,1,7,0,4,3.5,1,no
7,0,1,1,7,0,1,1,7,0,7,7,1,no
7,0,1,1,1,0,2,1,7,0,4,3.5,1,no
7,1,1,1,1,0,1,1,7,0,7,7,1,no
7,0,1,1,1,0,1,1,7,0,7,7,1,no
3,0,0,0,1,0,2,1,4,1,3,2.5,1,no
3,0,0,0,1,0,1,1,3,0,3,3,1,no
8,0,2,2,1,1,2,1,8,0,5,4,1,no
5,0,1,1,0,0,1,1,5,0,5,5,1,no
34,2,6,3,3,3,2,1,34,0,31,17,1,no
8,1,1,1,2,0,1,1,8,0,8,8,1,no
33,1,8,3,5,0,2,1,33,0,18,16.5,1,no
10,1,1,1,0,0,1,1,10,0,10,10,1,no
6,1,0,0,0,0,2,1,6,0,5,3,1,no
13,2,2,2,1,0,2,1,13,0,7,6.5,1,no
10,2,1,1,1,0,2,1,10,0,6,5,1,no
0,0,0,0,0,0,1,1,0,0,0,0,1,no
0,1,0,0,1,0,1,1,0,0,0,0,1,no
0,0,0,0,0,0,1,1,0,0,0,0,1,no
0,0,0,0,1,0,1,1,0,0,0,0,1,no
0,1,0,0,1,0,1,1,0,0,0,0,1,no
0,0,0,0,1,0,1,1,0,0,0,0,1,no
0,0,0,0,0,0,1,1,0,0,0,0,1,no
4,2,0,0,1,0,1,1,4,0,4,4,1,no
3,0,0,0,1,0,1,1,3,0,3,3,1,no
3,0,0,0,0,0,1,1,3,0,3,3,1,no
3,0,0,0,0,0,1,1,3,0,3,3,1,no
3,0,0,0,0,0,1,1,3,0,3,3,1,no
3,0,0,0,0,0,1,1,3,0,3,3,1,no
6,1,1,1,1,0,1,1,6,0,6,6,1,no
20,1,8,1,0,0,2,1,20,0,18,10,1,no
3,1,0,0,0,0,1,1,3,0,3,3,1,no
4,2,0,0,1,0,1,1,4,0,4,4,1,no
3,0,0,0,1,0,1,1,3,0,3,3,1,no
3,0,0,0,0,0,1,1,3,0,3,3,1,no
3,0,0,0,0,0,1,1,3,0,3,3,1,no
3,0,0,0,0,0,1,1,3,0,3,3,1,no
3,0,0,0,0,0,1,1,3,0,3,3,1,no
6,1,1,1,1,0,1,1,6,0,6,6,1,no
8,1,2,1,0,0,1,1,8,0,8,8,1,no
3,1,0,0,0,0,1,1,3,0,3,3,1,no
3,1,0,0,0,0,1,1,3,0,3,3,1,no
2,1,0,0,1,0,1,1,2,0,2,2,1,no
3,0,0,0,1,0,1,1,3,0,3,3,0,no
3,0,0,0,1,0,1,1,3,0,3,3,0,no
3,0,0,0,1,0,1,1,3,0,3,3,1,no
3,0,0,0,1,0,1,1,3,0,3,3,1,no
3,0,0,0,0,0,1,1,3,0,3,3,1,no
3,0,0,0,0,0,1,1,3,0,3,3,1,no
3,0,0,0,2,0,1,1,3,0,3,3,1,no
3,0,0,0,1,0,1,1,3,0,3,3,1,no
3,0,0,0,1,0,1,1,3,0,3,3,1,no
3,0,0,0,1,0,1,1,3,0,3,3,1,no
53,0,14,1,13,3,3,1,54,1,50,18.333333,1,no
3,0,0,0,0,0,1,1,3,0,3,3,1,no
3,0,0,0,1,0,1,1,3,0,3,3,1,no
3,0,0,0,1,0,1,1,3,0,3,3,1,no
3,0,0,0,1,0,1,1,3,0,3,3,1,no
3,0,0,0,1,0,1,1,3,0,3,3,1,no
3,0,0,0,1,0,1,1,3,0,3,3,1,no
3,0,0,0,1,0,1,1,3,0,3,3,1,no
3,0,0,0,0,0,1,1,3,0,3,3,1,no
3,1,0,0,0,0,1,1,3,0,3,3,1,no
3,0,0,0,0,0,1,1,3,0,3,3,1,no
3,0,0,0,0,0,1,1,3,0,3,3,1,no
3,0,0,0,0,0,1,1,3,0,3,3,1,no
3,0,0,0,1,0,1,1,3,0,3,3,1,no
3,0,0,0,1,0,1,1,3,0,3,3,1,no
3,0,0,0,1,0,1,1,3,0,3,3,1,no
3,0,0,0,1,0,1,1,3,0,3,3,0,no
3,0,0,0,1,0,2,1,4,1,3,2.5,1,no
3,0,0,0,1,0,2,1,4,1,3,2.5,1,no
3,0,0,0,1,0,2,1,4,1,3,2.5,1,no
3,0,0,0,1,0,2,1,4,1,3,2.5,1,no
3,0,0,0,1,0,2,1,4,1,3,2.5,1,no
3,0,0,0,1,0,2,1,4,1,3,2.5,1,no
3,0,0,0,1,0,2,1,4,1,3,2.5,1,no
3,0,0,0,1,0,2,1,4,1,3,2.5,1,no
3,0,0,0,1,0,2,1,4,1,3,2.5,1,no
3,0,0,0,1,0,2,1,4,1,3,2.5,1,no
3,0,0,0,1,0,2,1,4,1,3,2.5,1,no
16,0,0,0,10,0,3,1,16,0,10,5.333333,1,no
3,0,0,0,1,0,1,1,3,0,3,3,1,no
65,0,19,2,2,1,3,1,65,0,35,21.666667,1,no
3,0,0,0,0,0,1,1,3,0,3,3,1,no
3,1,0,0,1,0,1,1,3,0,3,3,1,no
3,0,0,0,0,0,1,1,3,0,3,3,1,no
4,1,0,0,2,1,1,1,4,0,4,4,1,no
8,1,1,1,1,1,1,1,8,0,8,8,1,no
8,2,1,1,1,1,1,1,8,0,8,8,1,no
3,1,0,0,1,0,1,1,3,0,3,3,1,no
3,2,0,0,1,0,1,1,3,0,3,3,1,no
3,1,0,0,1,0,1,1,3,0,3,3,1,no
3,2,0,0,1,0,1,1,3,0,3,3,1,no
3,1,0,0,1,0,1,1,3,0,3,3,1,no
3,2,0,0,1,0,1,1,3,0,3,3,1,no
3,1,0,0,1,0,1,1,3,0,3,3,1,no
3,2,0,0,1,0,1,1,3,0,3,3,1,no
3,0,0,0,0,0,1,1,3,0,3,3,1,no
3,0,0,0,2,0,1,1,3,0,3,3,1,no
43,1,13,1,12,1,3,1,44,1,40,15,1,no
3,0,0,0,0,0,2,1,3,0,2,1.5,1,no
4,1,0,0,0,0,1,1,4,0,4,4,1,no
6,1,0,0,1,0,2,1,7,1,7,4,1,no
9,1,1,1,0,0,2,1,10,1,10,5.5,1,no
7,0,1,1,2,1,2,1,7,0,6,3.5,1,no
7,0,1,1,2,1,2,1,7,0,6,3.5,1,no
89,0,20,1,19,3,3,1,89,0,70,29.666667,1,no
59,0,7,1,23,0,3,1,59,0,46,19.666667,1,no
10,0,1,1,2,0,1,1,10,0,10,10,0,no
10,0,1,1,2,0,2,1,10,0,5,5,1,no
6,0,0,0,2,0,2,1,6,0,5,3,1,no
10,0,1,1,2,0,2,1,10,0,5,5,1,no
6,0,0,0,1,0,2,1,6,0,5,3,1,no
10,0,1,1,2,0,2,1,10,0,5,5,1,no
10,0,1,1,2,0,2,1,10,0,5,5,1,no
10,0,1,1,2,0,2,1,10,0,5,5,1,no
6,0,0,0,1,0,2,1,6,0,5,3,1,no
7,0,0,0,2,0,2,1,7,0,4,3.5,1,no
6,0,0,0,1,0,2,1,6,0,5,3,1,no
6,0,0,0,2,0,2,1,6,0,5,3,1,no
10,0,1,1,2,0,2,1,10,0,5,5,1,no
3,0,0,0,1,0,2,1,4,1,3,2.5,1,no
3,0,0,0,0,0,2,1,5,2,5,3.5,1,no
6,0,1,1,1,0,1,1,6,0,6,6,1,no
7,0,1,1,1,0,1,1,7,0,7,7,0,no
5,0,0,0,1,0,1,1,5,0,5,5,0,no
7,0,1,1,6,0,1,1,7,0,7,7,0,no
7,0,1,1,1,0,1,1,7,0,7,7,0,no
7,0,1,1,1,0,2,1,7,0,4,3.5,1,no
5,0,0,0,1,0,1,1,5,0,5,5,1,no
7,0,1,1,6,0,1,1,7,0,7,7,1,no
7,0,1,1,1,0,1,1,7,0,7,7,1,no
3,0,0,0,2,0,1,1,3,0,3,3,1,no
3,0,0,0,2,0,1,1,3,0,3,3,1,no
3,0,0,0,1,0,1,1,3,0,3,3,1,no
3,0,0,0,1,0,2,1,4,1,3,2.5,1,no
7,0,1,1,1,0,2,1,7,0,4,3.5,1,no
5,0,0,0,1,0,1,1,5,0,5,5,1,no
7,0,1,1,6,0,1,1,7,0,7,7,1,no
7,0,1,1,1,0,1,1,7,0,7,7,1,no
3,0,0,0,0,0,2,1,4,1,3,2.5,1,no
7,0,1,1,1,0,2,1,7,0,4,3.5,1,no
5,0,0,0,1,0,1,1,5,0,5,5,1,no
7,0,1,1,6,0,1,1,7,0,7,7,1,no
7,0,1,1,1,0,1,1,7,0,7,7,1,no
7,0,1,1,1,0,2,1,7,0,4,3.5,1,no
5,0,0,0,1,0,1,1,5,0,5,5,1,no
7,0,1,1,6,0,1,1,7,0,7,7,1,no
7,0,1,1,1,0,1,1,7,0,7,7,1,no
7,0,1,1,1,0,2,1,7,0,4,3.5,1,no
5,0,0,0,1,0,1,1,5,0,5,5,1,no
7,0,1,1,6,0,1,1,7,0,7,7,1,no
7,0,1,1,1,0,1,1,7,0,7,7,1,no
3,0,0,0,0,0,2,1,4,1,3,2.5,1,no
3,1,0,0,0,0,2,1,4,1,3,2.5,1,no
3,0,0,0,0,0,2,1,4,1,3,2.5,1,no
3,0,0,0,0,0,2,1,4,1,3,2.5,1,no
3,0,0,0,0,0,2,1,4,1,3,2.5,1,no
3,0,0,0,1,0,2,1,4,1,3,2.5,1,no
7,0,1,1,1,0,2,1,7,0,4,3.5,1,no
5,0,0,0,1,0,1,1,5,0,5,5,1,no
7,0,1,1,6,0,1,1,7,0,7,7,1,no
7,0,1,1,1,0,1,1,7,0,7,7,1,no
3,0,0,0,1,0,1,1,3,0,3,3,0,no
3,0,0,0,1,0,2,1,4,1,3,2.5,1,no
3,0,0,0,1,0,2,1,4,1,3,2.5,1,no
3,0,0,0,1,0,2,1,4,1,3,2.5,1,no
3,0,0,0,1,0,2,1,4,1,3,2.5,1,no
3,0,0,0,1,0,2,1,4,1,3,2.5,1,no
3,0,0,0,1,0,2,1,4,1,3,2.5,1,no
3,0,0,0,1,0,2,1,4,1,3,2.5,1,no
3,0,0,0,1,0,2,1,4,1,3,2.5,1,no
3,0,0,0,1,0,2,1,4,1,3,2.5,1,no
3,0,0,0,1,0,2,1,4,1,3,2.5,1,no
3,0,0,0,1,0,2,1,4,1,3,2.5,1,no
3,0,0,0,1,0,1,1,3,0,3,3,1,no
50,0,18,2,1,0,3,1,50,0,42,16.666667,1,no
11,0,1,1,0,0,2,1,11,0,10,5.5,1,no
14,1,2,2,4,0,1,1,14,0,14,14,0,no
14,1,2,2,4,0,2,1,14,0,9,7,1,no
139,2,26,3,19,13,3,1,139,0,121,46.333333,1,no
8,1,1,1,2,0,1,1,8,0,8,8,1,no
52,1,15,2,4,0,3,1,52,0,45,17.333333,1,no
14,1,2,2,4,0,2,1,14,0,9,7,1,no
14,1,2,2,4,0,2,1,14,0,9,7,1,no
14,1,2,2,4,0,2,1,14,0,9,7,1,no
14,1,2,2,4,0,2,1,14,0,9,7,1,no
14,1,2,2,4,0,2,1,14,0,9,7,1,no
13,1,2,2,1,0,1,1,13,0,13,13,0,no
10,1,1,1,1,0,1,1,10,0,10,10,0,no
13,1,2,2,1,0,2,1,13,0,8,6.5,1,no
10,1,1,1,1,0,2,1,10,0,5,5,1,no
9,1,1,1,1,0,2,1,9,0,8,4.5,1,no
13,1,2,2,1,0,2,1,13,0,8,6.5,1,no
10,1,1,1,1,0,2,1,10,0,5,5,1,no
6,1,0,0,0,0,2,1,6,0,5,3,1,no
13,1,2,2,1,0,2,1,13,0,8,6.5,1,no
10,1,1,1,1,0,2,1,10,0,5,5,1,no
13,1,2,2,1,0,2,1,13,0,8,6.5,1,no
10,1,1,1,1,0,2,1,10,0,5,5,1,no
13,1,2,2,1,0,2,1,13,0,8,6.5,1,no
10,1,1,1,1,0,2,1,10,0,5,5,1,no
9,1,1,1,0,0,2,1,9,0,8,4.5,1,no
9,2,1,1,0,0,2,1,9,0,7,4.5,1,no
6,1,0,0,0,0,2,1,6,0,5,3,1,no
9,1,1,1,1,0,2,1,9,0,8,4.5,1,no
13,1,2,2,1,0,2,1,13,0,8,6.5,1,no
10,1,1,1,1,0,2,1,10,0,5,5,1,no
0,0,0,0,1,0,1,1,0,0,0,0,0,no
0,0,0,0,1,0,1,1,0,0,0,0,0,no
0,0,0,0,1,0,1,1,0,0,0,0,1,no
0,0,0,0,1,0,1,1,0,0,0,0,1,no
0,0,0,0,1,0,1,1,0,0,0,0,1,no
0,0,0,0,1,0,1,1,0,0,0,0,1,no
0,0,0,0,1,0,1,1,0,0,0,0,1,no
0,0,0,0,0,0,1,1,0,0,0,0,1,no
0,0,0,0,1,0,1,1,0,0,0,0,1,no
0,0,0,0,1,0,1,1,0,0,0,0,1,no
0,0,0,0,1,0,1,1,0,0,0,0,1,no
0,0,0,0,1,0,1,1,0,0,0,0,1,no
0,0,0,0,1,0,1,1,0,0,0,0,1,no
0,0,0,0,1,0,1,1,0,0,0,0,1,no
0,0,0,0,0,0,1,1,0,0,0,0,1,no
0,1,0,0,0,0,1,1,0,0,0,0,1,no
0,0,0,0,0,0,1,1,0,0,0,0,1,no
0,0,0,0,0,0,1,1,0,0,0,0,1,no
0,0,0,0,0,0,1,1,0,0,0,0,1,no
0,0,0,0,1,0,1,1,0,0,0,0,1,no
0,0,0,0,1,0,1,1,0,0,0,0,1,no
0,0,0,0,1,0,1,1,0,0,0,0,1,no
0,0,0,0,0,0,1,1,0,0,0,0,0,no
0,0,0,0,0,0,1,1,0,0,0,0,1,no
0,0,0,0,0,0,1,1,0,0,0,0,1,no
0,0,0,0,0,0,1,1,0,0,0,0,1,no
0,0,0,0,0,0,1,1,0,0,0,0,1,no
0,0,0,0,0,0,1,1,0,0,0,0,1,no
0,0,0,0,0,0,1,1,0,0,0,0,1,no
0,0,0,0,0,0,1,1,0,0,0,0,1,no
0,0,0,0,0,0,1,1,0,0,0,0,1,no
0,0,0,0,0,0,1,1,0,0,0,0,1,no
0,0,0,0,0,0,1,1,0,0,0,0,1,no
0,0,0,0,0,0,1,1,0,0,0,0,1,no
3,1,0,0,0,0,1,1,3,0,3,3,1,no
2,1,0,0,1,0,1,1,2,0,2,2,1,no
3,0,0,0,0,0,1,1,3,0,3,3,1,no
3,0,0,0,0,0,1,1,3,0,3,3,1,no
3,0,0,0,2,0,1,1,3,0,3,3,1,no
3,0,0,0,1,0,1,1,3,0,3,3,1,no
3,0,0,0,1,0,1,1,3,0,3,3,1,no
3,0,0,0,1,0,1,1,3,0,3,3,1,no
3,0,0,0,1,0,1,1,3,0,3,3,0,no
3,0,0,0,1,0,1,1,3,0,3,3,0,no
33,0,9,1,9,1,3,2,34,1,30,11.666667,1,no
3,0,0,0,1,0,1,1,3,0,3,3,1,no
13,0,2,2,1,3,2,1,13,0,10,6.5,1,no
10,0,1,1,1,2,1,1,10,0,10,10,1,no
3,0,0,0,0,0,1,1,3,0,3,3,1,no
3,0,0,0,0,0,1,1,3,0,3,3,1,no
3,0,0,0,0,0,1,1,3,0,3,3,1,no
3,0,0,0,1,0,2,1,4,1,3,2.5,1,no
3,0,0,0,1,0,2,1,4,1,3,2.5,1,no
3,0,0,0,1,0,1,1,3,0,3,3,0,no
3,0,0,0,1,0,2,1,4,1,3,2.5,1,no
3,0,0,0,1,0,2,1,4,1,3,2.5,1,no
3,0,0,0,1,0,2,1,4,1,3,2.5,1,no
3,0,0,0,1,0,2,1,4,1,3,2.5,1,no
3,0,0,0,1,0,2,1,4,1,3,2.5,1,no
10,0,0,0,4,0,3,2,10,0,5,3.333333,1,no
3,0,0,0,1,0,1,1,3,0,3,3,1,no
31,0,8,2,2,1,3,2,31,0,13,10.333333,1,no
3,0,0,0,0,0,1,1,3,0,3,3,1,no
3,1,0,0,1,0,1,1,3,0,3,3,1,no
3,0,0,0,0,0,1,1,3,0,3,3,1,no
4,1,0,0,2,1,1,1,4,0,4,4,1,no
8,1,1,1,1,1,1,1,8,0,8,8,1,no
8,2,1,1,1,1,1,1,8,0,8,8,1,no
3,1,0,0,1,0,1,1,3,0,3,3,1,no
3,2,0,0,1,0,1,1,3,0,3,3,1,no
3,1,0,0,1,0,1,1,3,0,3,3,1,no
3,2,0,0,1,0,1,1,3,0,3,3,1,no
3,1,0,0,1,0,1,1,3,0,3,3,1,no
3,2,0,0,1,0,1,1,3,0,3,3,1,no
3,1,0,0,1,0,1,1,3,0,3,3,1,no
3,2,0,0,1,0,1,1,3,0,3,3,1,no
3,0,0,0,0,0,1,1,3,0,3,3,1,no
3,0,0,0,2,0,1,1,3,0,3,3,1,no
28,1,8,1,8,0,3,2,29,1,25,10,1,no
3,0,0,0,0,0,2,1,3,0,2,1.5,1,no
4,1,0,0,0,0,1,1,4,0,4,4,1,no
7,0,1,1,2,1,2,1,7,0,6,3.5,1,no
7,0,1,1,2,1,2,1,7,0,6,3.5,1,no
48,0,10,1,13,3,3,2,48,0,32,16,1,no
28,0,2,1,12,0,3,2,28,0,15,9.333333,1,no
10,0,1,1,2,0,2,1,10,0,5,5,1,no
6,0,0,0,2,0,2,1,6,0,5,3,1,no
10,0,1,1,2,0,1,1,10,0,10,10,0,no
6,0,0,0,2,0,2,1,6,0,5,3,1,no
6,0,0,0,1,0,2,1,6,0,5,3,1,no
6,0,0,0,1,0,2,1,6,0,5,3,1,no
6,0,0,0,1,0,2,1,6,0,5,3,1,no
6,0,0,0,1,0,2,1,6,0,5,3,1,no
3,0,0,0,1,0,2,1,4,1,3,2.5,1,no
3,0,0,0,0,0,2,1,5,2,5,3.5,1,no
3,0,0,0,2,0,1,1,3,0,3,3,1,no
3,0,0,0,2,0,1,1,3,0,3,3,1,no
3,0,0,0,1,0,1,1,3,0,3,3,1,no
7,0,1,1,1,0,2,1,7,0,4,3.5,1,no
5,0,0,0,1,0,1,1,5,0,5,5,1,no
7,0,1,1,6,0,1,1,7,0,7,7,1,no
7,0,1,1,1,0,1,1,7,0,7,7,1,no
3,0,0,0,1,0,2,1,4,1,3,2.5,1,no
7,0,1,1,1,0,1,1,7,0,7,7,0,no
5,0,0,0,1,0,1,1,5,0,5,5,0,no
7,0,1,1,6,0,1,1,7,0,7,7,0,no
7,0,1,1,1,0,1,1,7,0,7,7,0,no
3,0,0,0,1,0,2,1,4,1,3,2.5,1,no
10,0,1,1,1,2,2,1,10,0,7,5,1,no
3,0,0,0,0,0,2,1,4,1,3,2.5,1,no
3,0,0,0,0,0,2,1,4,1,3,2.5,1,no
3,0,0,0,0,0,2,1,4,1,3,2.5,1,no
3,0,0,0,1,0,2,1,4,1,3,2.5,1,no
3,0,0,0,1,0,2,1,4,1,3,2.5,1,no
3,0,0,0,1,0,1,1,3,0,3,3,0,no
3,0,0,0,1,0,2,1,4,1,3,2.5,1,no
3,0,0,0,1,0,2,1,4,1,3,2.5,1,no
3,0,0,0,1,0,2,1,4,1,3,2.5,1,no
3,0,0,0,1,0,2,1,4,1,3,2.5,1,no
3,0,0,0,1,0,2,1,4,1,3,2.5,1,no
3,0,0,0,1,0,1,1,3,0,3,3,1,no
22,0,7,2,1,0,3,2,22,0,14,7.333333,1,no
6,0,1,1,0,0,2,2,6,0,5,3,1,no
89,2,16,3,9,8,3,2,89,0,71,29.666667,1,no
8,1,1,1,2,0,1,1,8,0,8,8,1,no
30,1,9,1,3,0,2,2,30,0,27,15,1,no
14,1,2,2,4,0,2,1,14,0,9,7,1,no
14,1,2,2,4,0,1,1,14,0,14,14,0,no
13,1,2,2,1,0,2,1,13,0,8,6.5,1,no
10,1,1,1,1,0,2,1,10,0,5,5,1,no
9,1,1,1,1,0,2,1,9,0,8,4.5,1,no
13,1,2,2,1,0,1,1,13,0,13,13,0,no
10,1,1,1,1,0,1,1,10,0,10,10,0,no
9,1,1,1,1,0,2,1,9,0,8,4.5,1,no
9,1,1,1,0,0,1,1,9,0,9,9,1,no
5,1,0,0,0,0,1,1,5,0,5,5,1,no
9,1,1,1,0,0,2,1,9,0,8,4.5,1,no
9,1,1,1,0,0,2,1,9,0,8,4.5,1,no
6,1,0,0,0,0,2,1,6,0,5,3,1,no
0,0,0,0,1,0,1,1,0,0,0,0,1,no
0,0,0,0,1,0,1,1,0,0,0,0,1,no
0,0,0,0,1,0,1,1,0,0,0,0,1,no
0,0,0,0,1,0,1,1,0,0,0,0,0,no
0,0,0,0,1,0,1,1,0,0,0,0,0,no
0,0,0,0,1,0,1,1,0,0,0,0,1,no
0,0,0,0,0,0,1,1,0,0,0,0,1,no
0,0,0,0,0,0,1,1,0,0,0,0,1,no
0,0,0,0,0,0,1,1,0,0,0,0,1,no
0,0,0,0,0,0,1,1,0,0,0,0,1,no
0,0,0,0,0,0,1,1,0,0,0,0,1,no
0,0,0,0,0,0,1,1,0,0,0,0,1,no
0,0,0,0,0,0,1,1,0,0,0,0,0,no
0,0,0,0,0,0,1,1,0,0,0,0,1,no
0,0,0,0,0,0,1,1,0,0,0,0,1,no
0,0,0,0,0,0,1,1,0,0,0,0,1,no
0,0,0,0,0,0,1,1,0,0,0,0,1,no
0,0,0,0,0,0,1,1,0,0,0,0,1,no
3,1,0,0,0,0,1,1,3,0,3,3,1,no
2,1,0,0,1,0,1,1,2,0,2,2,1,no
3,0,0,0,0,0,1,1,3,0,3,3,1,no
3,0,0,0,0,0,1,1,3,0,3,3,1,no
3,0,0,0,2,0,1,1,3,0,3,3,1,no
3,0,0,0,1,0,1,1,3,0,3,3,1,no
3,0,0,0,1,0,1,1,3,0,3,3,1,no
12,0,2,1,2,1,2,1,13,1,12,7,1,no
3,0,0,0,1,0,2,1,4,1,3,2.5,1,no
3,0,0,0,1,0,1,1,3,0,3,3,1,no
3,0,0,0,1,0,1,1,3,0,3,3,1,no
15,0,3,1,2,1,2,1,15,0,8,7.5,1,no
3,0,0,0,0,0,1,1,3,0,3,3,1,no
3,1,0,0,1,0,1,1,3,0,3,3,1,no
3,0,0,0,0,0,1,1,3,0,3,3,1,no
4,1,0,0,2,1,1,1,4,0,4,4,1,no
8,1,1,1,1,1,1,1,8,0,8,8,1,no
8,2,1,1,1,1,1,1,8,0,8,8,1,no
3,1,0,0,1,0,1,1,3,0,3,3,1,no
3,2,0,0,1,0,1,1,3,0,3,3,1,no
3,1,0,0,1,0,1,1,3,0,3,3,1,no
3,2,0,0,1,0,1,1,3,0,3,3,1,no
3,1,0,0,1,0,1,1,3,0,3,3,1,no
3,2,0,0,1,0,1,1,3,0,3,3,1,no
3,1,0,0,1,0,1,1,3,0,3,3,1,no
3,2,0,0,1,0,1,1,3,0,3,3,1,no
3,0,0,0,0,0,1,1,3,0,3,3,1,no
3,0,0,0,2,0,1,1,3,0,3,3,1,no
7,1,1,1,1,0,2,1,8,1,7,4.5,1,no
3,0,0,0,0,0,2,1,3,0,2,1.5,1,no
4,1,0,0,0,0,1,1,4,0,4,4,1,no
7,0,1,1,2,1,2,1,7,0,6,3.5,1,no
7,0,1,1,2,1,2,1,7,0,6,3.5,1,no
16,0,2,1,6,3,2,1,16,0,8,8,1,no
10,0,1,1,2,0,2,1,10,0,7,5,1,no
10,0,1,1,2,0,2,1,10,0,5,5,1,no
3,0,0,0,1,0,2,1,4,1,3,2.5,1,no
3,0,0,0,0,0,2,1,5,2,5,3.5,1,no
3,0,0,0,2,0,1,1,3,0,3,3,1,no
3,0,0,0,2,0,1,1,3,0,3,3,1,no
3,0,0,0,1,0,1,1,3,0,3,3,1,no
7,0,1,1,1,0,2,1,7,0,4,3.5,1,no
5,0,0,0,1,0,1,1,5,0,5,5,1,no
7,0,1,1,6,0,1,1,7,0,7,7,1,no
7,0,1,1,1,0,1,1,7,0,7,7,1,no
3,0,0,0,1,0,2,1,4,1,3,2.5,1,no
3,0,0,0,1,0,1,1,3,0,3,3,1,no
9,0,2,1,2,0,2,1,9,0,6,4.5,1,no
5,0,1,1,0,0,1,1,5,0,5,5,1,no
31,2,6,3,3,3,2,1,31,0,29,15.5,1,no
8,1,1,1,2,0,1,1,8,0,8,8,1,no
9,1,2,1,3,0,1,1,9,0,9,9,1,no
14,1,2,2,4,0,2,1,14,0,9,7,1,no
13,1,2,2,1,0,2,1,13,0,8,6.5,1,no
10,1,1,1,1,0,2,1,10,0,5,5,1,no
0,0,0,0,1,0,1,1,0,0,0,0,1,no
0,0,0,0,1,0,1,1,0,0,0,0,1,no
0,0,0,0,0,0,1,1,0,0,0,0,1,no
3,1,0,0,0,0,1,1,3,0,3,3,0,no
2,1,0,0,1,0,1,1,2,0,2,2,0,no
3,0,0,0,0,0,1,1,3,0,3,3,0,no
3,0,0,0,0,0,1,1,3,0,3,3,0,no
3,0,0,0,2,0,1,1,3,0,3,3,0,no
3,0,0,0,1,0,1,1,3,0,3,3,0,no
3,0,0,0,1,0,1,1,3,0,3,3,0,no
12,0,2,1,2,1,1,1,12,0,12,12,0,no
3,0,0,0,1,0,1,1,3,0,3,3,0,no
3,0,0,0,1,0,1,1,3,0,3,3,0,no
3,0,0,0,1,0,1,1,3,0,3,3,0,no
15,0,3,1,2,1,1,1,15,0,15,15,0,no
3,0,0,0,0,0,1,1,3,0,3,3,0,no
3,1,0,0,1,0,1,1,3,0,3,3,0,no
3,0,0,0,0,0,1,1,3,0,3,3,0,no
4,1,0,0,2,1,1,1,4,0,4,4,0,no
8,1,1,1,1,1,1,1,8,0,8,8,0,no
8,2,1,1,1,1,1,1,8,0,8,8,0,no
3,1,0,0,1,0,1,1,3,0,3,3,0,no
3,2,0,0,1,0,1,1,3,0,3,3,0,no
3,1,0,0,1,0,1,1,3,0,3,3,0,no
3,2,0,0,1,0,1,1,3,0,3,3,0,no
3,1,0,0,1,0,1,1,3,0,3,3,0,no
3,2,0,0,1,0,1,1,3,0,3,3,0,no
3,1,0,0,1,0,1,1,3,0,3,3,0,no
3,2,0,0,1,0,1,1,3,0,3,3,0,no
3,0,0,0,0,0,1,1,3,0,3,3,0,no
3,0,0,0,2,0,1,1,3,0,3,3,0,no
7,1,1,1,1,0,1,1,7,0,7,7,0,no
3,0,0,0,0,0,1,1,3,0,3,3,0,no
4,1,0,0,0,0,1,1,4,0,4,4,0,no
7,0,1,1,2,1,1,1,7,0,7,7,0,no
7,0,1,1,2,1,1,1,7,0,7,7,0,no
16,0,2,1,6,3,1,1,16,0,16,16,0,no
10,0,1,1,2,0,1,1,10,0,10,10,0,no
10,0,1,1,2,0,1,1,10,0,10,10,0,no
3,0,0,0,1,0,1,1,3,0,3,3,0,no
3,0,0,0,0,0,1,1,3,0,3,3,0,no
3,0,0,0,2,0,1,1,3,0,3,3,0,no
3,0,0,0,2,0,1,1,3,0,3,3,0,no
3,0,0,0,1,0,1,1,3,0,3,3,0,no
7,0,1,1,1,0,1,1,7,0,7,7,0,no
5,0,0,0,1,0,1,1,5,0,5,5,0,no
7,0,1,1,6,0,1,1,7,0,7,7,0,no
7,0,1,1,1,0,1,1,7,0,7,7,0,no
3,0,0,0,1,0,1,1,3,0,3,3,0,no
3,0,0,0,1,0,1,1,3,0,3,3,0,no
9,0,2,1,2,0,1,1,9,0,9,9,0,no
5,0,1,1,0,0,1,1,5,0,5,5,0,no
31,2,6,3,3,3,1,1,31,0,31,31,0,no
8,1,1,1,2,0,1,1,8,0,8,8,0,no
9,1,2,1,3,0,1,1,9,0,9,9,0,no
14,1,2,2,4,0,1,1,14,0,14,14,0,no
13,1,2,2,1,0,1,1,13,0,13,13,0,no
10,1,1,1,1,0,1,1,10,0,10,10,0,no
0,0,0,0,1,0,1,1,0,0,0,0,0,no
0,0,0,0,1,0,1,1,0,0,0,0,0,no
0,0,0,0,0,0,1,1,0,0,0,0,0,no
3,1,0,0,0,0,1,1,3,0,3,3,1,no
2,1,0,0,1,0,1,1,2,0,2,2,1,no
3,0,0,0,0,0,1,1,3,0,3,3,1,no
3,0,0,0,0,0,1,1,3,0,3,3,1,no
3,0,0,0,2,0,1,1,3,0,3,3,1,no
3,0,0,0,0,0,1,1,3,0,3,3,1,no
3,0,0,0,0,0,1,1,3,0,3,3,1,no
15,0,3,1,3,1,2,1,16,1,15,8.5,1,no
3,0,0,0,1,0,2,1,4,1,3,2.5,1,no
3,0,0,0,1,0,2,1,4,1,3,2.5,1,no
4,0,0,0,0,0,2,1,4,0,2,2,1,no
3,0,0,0,1,0,1,1,3,0,3,3,1,no
15,0,3,1,2,1,2,1,15,0,8,7.5,1,no
3,0,0,0,0,0,1,1,3,0,3,3,1,no
3,1,0,0,1,0,1,1,3,0,3,3,1,no
3,0,0,0,0,0,1,1,3,0,3,3,1,no
4,1,0,0,2,1,1,1,4,0,4,4,1,no
8,1,1,1,1,1,1,1,8,0,8,8,1,no
8,2,1,1,1,1,1,1,8,0,8,8,1,no
3,1,0,0,1,0,1,1,3,0,3,3,1,no
3,2,0,0,1,0,1,1,3,0,3,3,1,no
3,1,0,0,1,0,1,1,3,0,3,3,1,no
3,2,0,0,1,0,1,1,3,0,3,3,1,no
3,1,0,0,1,0,1,1,3,0,3,3,1,no
3,2,0,0,1,0,1,1,3,0,3,3,1,no
3,1,0,0,1,0,1,1,3,0,3,3,1,no
3,2,0,0,1,0,1,1,3,0,3,3,1,no
3,0,0,0,0,0,1,1,3,0,3,3,1,no
3,0,0,0,2,0,1,1,3,0,3,3,1,no
10,1,2,1,2,0,2,1,11,1,10,6,1,no
3,0,0,0,0,0,2,1,3,0,2,1.5,1,no
4,1,0,0,0,0,1,1,4,0,4,4,1,no
7,0,1,1,2,1,2,1,7,0,6,3.5,1,no
7,0,1,1,2,1,2,1,7,0,6,3.5,1,no
16,0,2,1,7,3,2,1,16,0,8,8,1,no
8,0,0,0,2,0,2,1,8,0,7,4,1,no
6,0,0,0,1,0,2,1,6,0,5,3,1,no
6,0,0,0,1,0,2,1,6,0,5,3,1,no
3,0,0,0,1,0,2,1,4,1,3,2.5,1,no
3,0,0,0,0,0,2,1,5,2,5,3.5,1,no
3,0,0,0,2,0,1,1,3,0,3,3,1,no
3,0,0,0,2,0,1,1,3,0,3,3,1,no
3,0,0,0,1,0,1,1,3,0,3,3,1,no
3,0,0,0,0,0,2,1,4,1,3,2.5,1,no
3,0,0,0,0,0,2,1,4,1,3,2.5,1,no
3,0,0,0,1,0,2,1,4,1,3,2.5,1,no
3,0,0,0,1,0,2,1,4,1,3,2.5,1,no
3,0,0,0,1,0,1,1,3,0,3,3,1,no
9,0,2,1,2,0,2,1,9,0,6,4.5,1,no
4,0,1,1,1,0,1,1,4,0,4,4,1,no
33,2,6,3,1,2,2,1,33,0,29,16.5,1,no
8,1,1,1,2,0,1,1,8,0,8,8,1,no
12,1,3,1,3,0,1,1,12,0,12,12,1,no
9,1,1,1,0,0,2,1,9,0,8,4.5,1,no
6,1,0,0,0,0,2,1,6,0,5,3,1,no
0,0,0,0,0,0,1,1,0,0,0,0,1,no
0,0,0,0,0,0,1,1,0,0,0,0,1,no
0,0,0,0,0,0,1,1,0,0,0,0,1,no
0,0,0,0,0,0,1,1,0,0,0,0,1,no
3,1,0,0,0,0,1,1,3,0,3,3,0,no
2,1,0,0,1,0,1,1,2,0,2,2,0,no
3,0,0,0,0,0,1,1,3,0,3,3,0,no
3,0,0,0,0,0,1,1,3,0,3,3,0,no
3,0,0,0,2,0,1,1,3,0,3,3,0,no
3,0,0,0,1,0,1,1,3,0,3,3,0,no
3,0,0,0,1,0,1,1,3,0,3,3,0,no
18,0,4,1,4,1,3,2,18,0,12,6,0,no
3,0,0,0,1,0,1,1,3,0,3,3,0,no
3,0,0,0,1,0,1,1,3,0,3,3,0,no
3,0,0,0,1,0,1,1,3,0,3,3,0,no
3,0,0,0,1,0,1,1,3,0,3,3,0,no
3,0,0,0,1,0,1,1,3,0,3,3,0,no
3,0,0,0,1,0,1,1,3,0,3,3,0,no
3,0,0,0,1,0,1,1,3,0,3,3,0,no
5,0,0,0,3,0,3,2,5,0,3,1.666667,0,no
3,0,0,0,1,0,1,1,3,0,3,3,0,no
13,0,3,2,2,1,1,1,13,0,13,13,0,no
3,0,0,0,0,0,1,1,3,0,3,3,0,no
3,1,0,0,1,0,1,1,3,0,3,3,0,no
3,0,0,0,0,0,1,1,3,0,3,3,0,no
4,1,0,0,2,1,1,1,4,0,4,4,0,no
8,1,1,1,1,1,1,1,8,0,8,8,0,no
8,2,1,1,1,1,1,1,8,0,8,8,0,no
3,1,0,0,1,0,1,1,3,0,3,3,0,no
3,2,0,0,1,0,1,1,3,0,3,3,0,no
3,1,0,0,1,0,1,1,3,0,3,3,0,no
3,2,0,0,1,0,1,1,3,0,3,3,0,no
3,1,0,0,1,0,1,1,3,0,3,3,0,no
3,2,0,0,1,0,1,1,3,0,3,3,0,no
3,1,0,0,1,0,1,1,3,0,3,3,0,no
3,2,0,0,1,0,1,1,3,0,3,3,0,no
3,0,0,0,0,0,1,1,3,0,3,3,0,no
3,0,0,0,2,0,1,1,3,0,3,3,0,no
13,1,3,1,3,0,3,2,13,0,7,4.333333,0,no
3,0,0,0,0,0,1,1,3,0,3,3,0,no
4,1,0,0,0,0,1,1,4,0,4,4,0,no
7,0,1,1,2,1,1,1,7,0,7,7,0,no
7,0,1,1,2,1,1,1,7,0,7,7,0,no
32,0,6,1,8,3,3,2,32,0,16,10.666667,0,no
22,0,3,1,6,0,3,2,22,0,10,7.333333,0,no
10,0,1,1,2,0,1,1,10,0,10,10,0,no
10,0,1,1,2,0,1,1,10,0,10,10,0,no
10,0,1,1,2,0,1,1,10,0,10,10,0,no
3,0,0,0,1,0,1,1,3,0,3,3,0,no
3,0,0,0,0,0,1,1,3,0,3,3,0,no
3,0,0,0,2,0,1,1,3,0,3,3,0,no
3,0,0,0,2,0,1,1,3,0,3,3,0,no
3,0,0,0,1,0,1,1,3,0,3,3,0,no
7,0,1,1,1,0,1,1,7,0,7,7,0,no
5,0,0,0,1,0,1,1,5,0,5,5,0,no
7,0,1,1,6,0,1,1,7,0,7,7,0,no
7,0,1,1,1,0,1,1,7,0,7,7,0,no
7,0,1,1,1,0,1,1,7,0,7,7,0,no
5,0,0,0,1,0,1,1,5,0,5,5,0,no
7,0,1,1,6,0,1,1,7,0,7,7,0,no
7,0,1,1,1,0,1,1,7,0,7,7,0,no
7,0,1,1,1,0,1,1,7,0,7,7,0,no
5,0,0,0,1,0,1,1,5,0,5,5,0,no
7,0,1,1,6,0,1,1,7,0,7,7,0,no
7,0,1,1,1,0,1,1,7,0,7,7,0,no
3,0,0,0,1,0,1,1,3,0,3,3,0,no
3,0,0,0,1,0,1,1,3,0,3,3,0,no
3,0,0,0,1,0,1,1,3,0,3,3,0,no
3,0,0,0,1,0,1,1,3,0,3,3,0,no
8,0,2,2,1,0,1,1,8,0,8,8,0,no
7,0,1,1,0,0,3,2,7,0,5,2.333333,0,no
51,2,10,3,7,5,3,2,51,0,31,17,0,no
8,1,1,1,2,0,1,1,8,0,8,8,0,no
15,1,4,1,3,0,3,2,15,0,9,5,0,no
14,1,2,2,4,0,1,1,14,0,14,14,0,no
14,1,2,2,4,0,1,1,14,0,14,14,0,no
14,1,2,2,4,0,1,1,14,0,14,14,0,no
13,1,2,2,1,0,1,1,13,0,13,13,0,no
10,1,1,1,1,0,1,1,10,0,10,10,0,no
13,1,2,2,1,0,1,1,13,0,13,13,0,no
10,1,1,1,1,0,1,1,10,0,10,10,0,no
13,1,2,2,1,0,1,1,13,0,13,13,0,no
10,1,1,1,1,0,1,1,10,0,10,10,0,no
0,0,0,0,1,0,1,1,0,0,0,0,0,no
0,0,0,0,1,0,1,1,0,0,0,0,0,no
0,0,0,0,1,0,1,1,0,0,0,0,0,no
0,0,0,0,1,0,1,1,0,0,0,0,0,no
0,0,0,0,1,0,1,1,0,0,0,0,0,no
0,0,0,0,1,0,1,1,0,0,0,0,0,no
0,0,0,0,0,0,1,1,0,0,0,0,0,no
0,0,0,0,0,0,1,1,0,0,0,0,0,no
0,0,0,0,0,0,1,1,0,0,0,0,0,no
3,1,0,0,0,0,1,1,3,0,3,3,1,no
2,1,0,0,1,0,1,1,2,0,2,2,1,no
3,0,0,0,0,0,1,1,3,0,3,3,1,no
3,0,0,0,0,0,1,1,3,0,3,3,1,no
3,0,0,0,2,0,1,1,3,0,3,3,1,no
12,0,2,1,2,1,2,1,13,1,12,7,1,no
3,0,0,0,0,0,1,1,3,0,3,3,1,no
3,0,0,0,1,0,2,1,4,1,3,2.5,1,no
3,0,0,0,0,0,2,1,3,0,2,1.5,1,no
3,0,0,0,1,0,1,1,3,0,3,3,1,no
11,0,2,1,2,1,2,1,11,0,6,5.5,1,no
3,0,0,0,0,0,1,1,3,0,3,3,1,no
3,1,0,0,1,0,1,1,3,0,3,3,1,no
3,0,0,0,0,0,1,1,3,0,3,3,1,no
4,1,0,0,2,1,1,1,4,0,4,4,1,no
8,1,1,1,1,1,1,1,8,0,8,8,1,no
8,2,1,1,1,1,1,1,8,0,8,8,1,no
3,1,0,0,1,0,1,1,3,0,3,3,1,no
3,2,0,0,1,0,1,1,3,0,3,3,1,no
3,1,0,0,1,0,1,1,3,0,3,3,1,no
3,2,0,0,1,0,1,1,3,0,3,3,1,no
3,1,0,0,1,0,1,1,3,0,3,3,1,no
3,2,0,0,1,0,1,1,3,0,3,3,1,no
3,1,0,0,1,0,1,1,3,0,3,3,1,no
3,2,0,0,1,0,1,1,3,0,3,3,1,no
3,0,0,0,0,0,1,1,3,0,3,3,1,no
3,0,0,0,2,0,1,1,3,0,3,3,1,no
7,1,1,1,1,0,2,1,8,1,7,4.5,1,no
3,0,0,0,0,0,2,1,3,0,2,1.5,1,no
4,1,0,0,0,0,1,1,4,0,4,4,1,no
7,0,1,1,2,1,2,1,7,0,6,3.5,1,no
7,0,1,1,2,1,2,1,7,0,6,3.5,1,no
12,0,1,1,6,3,2,1,12,0,8,6,1,no
6,0,0,0,1,0,2,1,7,1,7,4,1,no
6,0,0,0,1,0,2,1,6,0,5,3,1,no
3,0,0,0,1,0,2,1,4,1,3,2.5,1,no
3,0,0,0,0,0,2,1,5,2,5,3.5,1,no
3,0,0,0,2,0,1,1,3,0,3,3,1,no
3,0,0,0,2,0,1,1,3,0,3,3,1,no
3,0,0,0,1,0,1,1,3,0,3,3,1,no
3,0,0,0,0,0,2,1,4,1,3,2.5,1,no
3,0,0,0,1,0,2,1,4,1,3,2.5,1,no
3,0,0,0,1,0,1,1,3,0,3,3,1,no
6,0,1,1,2,0,2,1,6,0,3,3,1,no
4,0,1,1,1,0,1,1,4,0,4,4,1,no
27,2,5,3,1,2,2,1,27,0,24,13.5,1,no
8,1,1,1,2,0,1,1,8,0,8,8,1,no
9,1,2,1,3,0,1,1,9,0,9,9,1,no
9,1,1,1,0,0,2,1,9,0,8,4.5,1,no
0,0,0,0,0,0,1,1,0,0,0,0,1,no
0,0,0,0,0,0,1,1,0,0,0,0,1,no
4,2,0,0,1,0,1,1,4,0,4,4,1,no
3,0,0,0,1,0,2,1,4,1,3,2.5,1,no
3,0,0,0,0,0,1,1,3,0,3,3,1,no
3,0,0,0,0,0,1,1,3,0,3,3,1,no
3,0,0,0,0,0,1,1,3,0,3,3,1,no
3,0,0,0,0,0,1,1,3,0,3,3,1,no
6,1,1,1,1,0,1,1,6,0,6,6,1,no
48,1,22,1,0,0,5,1,48,0,30,9.6,1,no
3,1,0,0,0,0,1,1,3,0,3,3,1,no
3,1,0,0,0,0,1,1,3,0,3,3,1,no
2,1,0,0,1,0,1,1,2,0,2,2,1,no
3,0,0,0,0,0,1,1,3,0,3,3,1,no
3,0,0,0,0,0,1,1,3,0,3,3,1,no
3,0,0,0,2,0,1,1,3,0,3,3,1,no
12,0,2,1,2,1,2,1,13,1,12,7,1,no
3,0,0,0,0,0,1,1,3,0,3,3,1,no
3,0,0,0,1,0,2,1,4,1,3,2.5,1,no
3,0,0,0,0,0,2,1,3,0,2,1.5,1,no
3,0,0,0,1,0,1,1,3,0,3,3,1,no
11,0,2,1,2,1,2,1,11,0,6,5.5,1,no
3,0,0,0,0,0,1,1,3,0,3,3,1,no
3,1,0,0,1,0,1,1,3,0,3,3,1,no
3,0,0,0,0,0,1,1,3,0,3,3,1,no
4,1,0,0,2,1,1,1,4,0,4,4,1,no
8,1,1,1,1,1,1,1,8,0,8,8,1,no
8,2,1,1,1,1,1,1,8,0,8,8,1,no
3,1,0,0,1,0,1,1,3,0,3,3,1,no
3,2,0,0,1,0,1,1,3,0,3,3,1,no
3,1,0,0,1,0,1,1,3,0,3,3,1,no
3,2,0,0,1,0,1,1,3,0,3,3,1,no
3,1,0,0,1,0,1,1,3,0,3,3,1,no
3,2,0,0,1,0,1,1,3,0,3,3,1,no
3,1,0,0,1,0,1,1,3,0,3,3,1,no
3,2,0,0,1,0,1,1,3,0,3,3,1,no
3,0,0,0,0,0,1,1,3,0,3,3,1,no
3,0,0,0,2,0,1,1,3,0,3,3,1,no
7,1,1,1,1,0,2,1,8,1,7,4.5,1,no
3,0,0,0,0,0,2,1,3,0,2,1.5,1,no
4,1,0,0,0,0,1,1,4,0,4,4,1,no
7,0,1,1,2,1,2,1,7,0,6,3.5,1,no
7,0,1,1,2,1,2,1,7,0,6,3.5,1,no
12,0,1,1,6,3,2,1,12,0,8,6,1,no
6,0,0,0,1,0,2,1,7,1,7,4,1,no
6,0,0,0,1,0,2,1,6,0,5,3,1,no
3,0,0,0,1,0,2,1,4,1,3,2.5,1,no
3,0,0,0,0,0,2,1,5,2,5,3.5,1,no
3,0,0,0,2,0,1,1,3,0,3,3,1,no
3,0,0,0,2,0,1,1,3,0,3,3,1,no
3,0,0,0,1,0,1,1,3,0,3,3,1,no
3,0,0,0,0,0,2,1,4,1,3,2.5,1,no
3,0,0,0,1,0,2,1,4,1,3,2.5,1,no
3,0,0,0,1,0,1,1,3,0,3,3,1,no
6,0,1,1,2,0,2,1,6,0,3,3,1,no
4,0,1,1,1,0,1,1,4,0,4,4,1,no
27,2,5,3,1,2,2,1,27,0,24,13.5,1,no
8,1,1,1,2,0,1,1,8,0,8,8,1,no
9,1,2,1,3,0,1,1,9,0,9,9,1,no
9,1,1,1,0,0,2,1,9,0,8,4.5,1,no
0,0,0,0,0,0,1,1,0,0,0,0,1,no
0,0,0,0,0,0,1,1,0,0,0,0,1,no
3,1,0,0,0,0,1,1,3,0,3,3,1,no
2,1,0,0,1,0,1,1,2,0,2,2,1,no
3,0,0,0,1,0,1,1,3,0,3,3,1,no
3,0,0,0,0,0,1,1,3,0,3,3,1,no
3,0,0,0,0,0,1,1,3,0,3,3,1,no
3,0,0,0,2,0,1,1,3,0,3,3,1,no
3,0,0,0,0,0,1,1,3,0,3,3,0,no
3,0,0,0,0,0,1,1,3,0,3,3,0,no
3,0,0,0,1,0,1,1,3,0,3,3,0,no
3,0,0,0,1,0,1,1,3,0,3,3,0,no
27,0,7,1,7,1,5,1,28,1,18,5.8,1,no
3,0,0,0,0,0,1,1,3,0,3,3,1,no
3,0,0,0,0,0,1,1,3,0,3,3,1,no
3,0,0,0,1,0,2,1,4,1,3,2.5,1,no
3,0,0,0,1,0,1,1,3,0,3,3,0,no
3,0,0,0,1,0,2,1,4,1,3,2.5,1,no
3,0,0,0,1,0,1,1,3,0,3,3,0,no
3,0,0,0,1,0,2,1,4,1,3,2.5,1,no
3,0,0,0,1,0,2,1,4,1,3,2.5,1,no
8,0,0,0,2,0,4,1,8,0,3,2,1,no
3,0,0,0,1,0,1,1,3,0,3,3,1,no
11,0,2,1,2,1,2,1,11,0,6,5.5,1,no
3,0,0,0,0,0,1,1,3,0,3,3,1,no
3,1,0,0,1,0,1,1,3,0,3,3,1,no
3,0,0,0,0,0,1,1,3,0,3,3,1,no
4,1,0,0,2,1,1,1,4,0,4,4,1,no
8,1,1,1,1,1,1,1,8,0,8,8,1,no
8,2,1,1,1,1,1,1,8,0,8,8,1,no
3,1,0,0,1,0,1,1,3,0,3,3,1,no
3,2,0,0,1,0,1,1,3,0,3,3,1,no
3,1,0,0,1,0,1,1,3,0,3,3,1,no
3,2,0,0,1,0,1,1,3,0,3,3,1,no
3,1,0,0,1,0,1,1,3,0,3,3,1,no
3,2,0,0,1,0,1,1,3,0,3,3,1,no
3,1,0,0,1,0,1,1,3,0,3,3,1,no
3,2,0,0,1,0,1,1,3,0,3,3,1,no
3,0,0,0,0,0,1,1,3,0,3,3,1,no
3,0,0,0,2,0,1,1,3,0,3,3,1,no
22,1,6,1,6,0,5,1,23,1,13,4.8,1,no
3,0,0,0,0,0,2,1,3,0,2,1.5,1,no
4,1,0,0,0,0,1,1,4,0,4,4,1,no
7,0,1,1,2,1,2,1,7,0,6,3.5,1,no
7,0,1,1,2,1,2,1,7,0,6,3.5,1,no
36,0,7,1,11,3,4,1,36,0,16,9,1,no
20,0,1,1,8,0,4,1,20,0,7,5,1,no
6,0,0,0,2,0,2,1,6,0,5,3,1,no
6,0,0,0,1,0,1,1,6,0,6,6,0,no
6,0,0,0,1,0,2,1,6,0,5,3,1,no
10,0,1,1,2,0,1,1,10,0,10,10,0,no
6,0,0,0,1,0,2,1,6,0,5,3,1,no
6,0,0,0,1,0,2,1,6,0,5,3,1,no
3,0,0,0,1,0,2,1,4,1,3,2.5,1,no
3,0,0,0,0,0,2,1,5,2,5,3.5,1,no
3,0,0,0,1,0,2,1,4,1,3,2.5,1,no
3,0,0,0,2,0,1,1,3,0,3,3,1,no
3,0,0,0,2,0,1,1,3,0,3,3,1,no
3,0,0,0,1,0,1,1,3,0,3,3,1,no
3,0,0,0,0,0,1,1,3,0,3,3,0,no
3,0,0,0,0,0,2,1,4,1,3,2.5,1,no
7,0,1,1,1,0,1,1,7,0,7,7,0,no
5,0,0,0,1,0,1,1,5,0,5,5,0,no
7,0,1,1,6,0,1,1,7,0,7,7,0,no
7,0,1,1,1,0,1,1,7,0,7,7,0,no
3,0,0,0,0,0,2,1,4,1,3,2.5,1,no
3,0,0,0,0,0,2,1,4,1,3,2.5,1,no
3,0,0,0,1,0,2,1,4,1,3,2.5,1,no
3,0,0,0,1,0,1,1,3,0,3,3,0,no
3,0,0,0,1,0,2,1,4,1,3,2.5,1,no
3,0,0,0,1,0,1,1,3,0,3,3,0,no
3,0,0,0,1,0,2,1,4,1,3,2.5,1,no
3,0,0,0,1,0,2,1,4,1,3,2.5,1,no
3,0,0,0,1,0,1,1,3,0,3,3,1,no
6,0,1,1,2,0,2,1,6,0,3,3,1,no
5,0,1,1,0,0,2,1,5,0,4,2.5,1,no
67,2,12,3,5,5,5,1,67,0,40,13.4,1,no
8,1,1,1,2,0,1,1,8,0,8,8,1,no
24,1,7,1,3,0,4,1,24,0,15,6,1,no
14,1,2,2,4,0,1,1,14,0,14,14,0,no
9,1,1,1,1,0,2,1,9,0,8,4.5,1,no
6,1,0,0,0,0,1,1,6,0,6,6,0,no
6,1,0,0,0,0,2,1,6,0,5,3,1,no
13,1,2,2,1,0,1,1,13,0,13,13,0,no
10,1,1,1,1,0,1,1,10,0,10,10,0,no
9,1,1,1,0,0,2,1,9,0,8,4.5,1,no
6,1,0,0,0,0,2,1,6,0,5,3,1,no
4,2,0,0,1,0,1,1,4,0,4,4,1,no
3,0,0,0,1,0,1,1,3,0,3,3,1,no
3,0,0,0,0,0,1,1,3,0,3,3,1,no
3,0,0,0,0,0,1,1,3,0,3,3,1,no
3,0,0,0,0,0,1,1,3,0,3,3,1,no
3,0,0,0,0,0,1,1,3,0,3,3,1,no
6,1,1,1,1,0,1,1,6,0,6,6,1,no
12,1,4,1,0,0,1,1,12,0,12,12,1,no
3,1,0,0,0,0,1,1,3,0,3,3,1,no
0,0,0,0,1,0,1,1,0,0,0,0,1,no
0,0,0,0,0,0,1,1,0,0,0,0,0,no
0,0,0,0,0,0,1,1,0,0,0,0,1,no
0,0,0,0,1,0,1,1,0,0,0,0,0,no
0,0,0,0,1,0,1,1,0,0,0,0,0,no
0,0,0,0,0,0,1,1,0,0,0,0,1,no
0,0,0,0,0,0,1,1,0,0,0,0,1,no
0,0,0,0,0,0,1,1,0,0,0,0,1,no
0,0,0,0,0,0,1,1,0,0,0,0,0,no
0,0,0,0,0,0,1,1,0,0,0,0,1,no
0,0,0,0,0,0,1,1,0,0,0,0,0,no
0,0,0,0,0,0,1,1,0,0,0,0,1,no
0,0,0,0,0,0,1,1,0,0,0,0,1,no
3,1,0,0,0,0,1,1,3,0,3,3,0,no
2,1,0,0,1,0,1,1,2,0,2,2,0,no
3,0,0,0,0,0,1,1,3,0,3,3,0,no
3,0,0,0,0,0,1,1,3,0,3,3,0,no
3,0,0,0,2,0,1,1,3,0,3,3,0,no
3,0,0,0,1,0,1,1,3,0,3,3,0,no
3,0,0,0,1,0,1,1,3,0,3,3,0,no
12,0,2,1,2,1,1,1,12,0,12,12,0,no
3,0,0,0,1,0,1,1,3,0,3,3,0,no
3,0,0,0,1,0,1,1,3,0,3,3,0,no
3,0,0,0,1,0,1,1,3,0,3,3,0,no
7,0,1,1,2,1,1,1,7,0,7,7,0,no
3,0,0,0,0,0,1,1,3,0,3,3,0,no
3,1,0,0,1,0,1,1,3,0,3,3,0,no
3,0,0,0,0,0,1,1,3,0,3,3,0,no
4,1,0,0,2,1,1,1,4,0,4,4,0,no
8,1,1,1,1,1,1,1,8,0,8,8,0,no
8,2,1,1,1,1,1,1,8,0,8,8,0,no
3,1,0,0,1,0,1,1,3,0,3,3,0,no
3,2,0,0,1,0,1,1,3,0,3,3,0,no
3,1,0,0,1,0,1,1,3,0,3,3,0,no
3,2,0,0,1,0,1,1,3,0,3,3,0,no
3,1,0,0,1,0,1,1,3,0,3,3,0,no
3,2,0,0,1,0,1,1,3,0,3,3,0,no
3,1,0,0,1,0,1,1,3,0,3,3,0,no
3,2,0,0,1,0,1,1,3,0,3,3,0,no
3,0,0,0,0,0,1,1,3,0,3,3,0,no
3,0,0,0,2,0,1,1,3,0,3,3,0,no
7,1,1,1,1,0,1,1,7,0,7,7,0,no
3,0,0,0,0,0,1,1,3,0,3,3,0,no
4,1,0,0,0,0,1,1,4,0,4,4,0,no
7,0,1,1,2,1,1,1,7,0,7,7,0,no
7,0,1,1,2,1,1,1,7,0,7,7,0,no
16,0,2,1,6,3,1,1,16,0,16,16,0,no
10,0,1,1,2,0,1,1,10,0,10,10,0,no
10,0,1,1,2,0,1,1,10,0,10,10,0,no
3,0,0,0,1,0,1,1,3,0,3,3,0,no
3,0,0,0,0,0,1,1,3,0,3,3,0,no
3,0,0,0,2,0,1,1,3,0,3,3,0,no
3,0,0,0,2,0,1,1,3,0,3,3,0,no
3,0,0,0,1,0,1,1,3,0,3,3,0,no
7,0,1,1,1,0,1,1,7,0,7,7,0,no
5,0,0,0,1,0,1,1,5,0,5,5,0,no
7,0,1,1,6,0,1,1,7,0,7,7,0,no
7,0,1,1,1,0,1,1,7,0,7,7,0,no
3,0,0,0,1,0,1,1,3,0,3,3,0,no
3,0,0,0,1,0,1,1,3,0,3,3,0,no
3,0,0,0,1,0,1,1,3,0,3,3,0,no
5,0,1,1,0,0,1,1,5,0,5,5,0,no
31,2,6,3,3,3,1,1,31,0,31,31,0,no
8,1,1,1,2,0,1,1,8,0,8,8,0,no
9,1,2,1,3,0,1,1,9,0,9,9,0,no
14,1,2,2,4,0,1,1,14,0,14,14,0,no
13,1,2,2,1,0,1,1,13,0,13,13,0,no
10,1,1,1,1,0,1,1,10,0,10,10,0,no
0,0,0,0,1,0,1,1,0,0,0,0,0,no
0,0,0,0,1,0,1,1,0,0,0,0,0,no
0,0,0,0,0,0,1,1,0,0,0,0,0,no
3,1,0,0,0,0,1,1,3,0,3,3,0,no
2,1,0,0,1,0,1,1,2,0,2,2,0,no
3,0,0,0,0,0,1,1,3,0,3,3,0,no
3,0,0,0,0,0,1,1,3,0,3,3,0,no
3,0,0,0,2,0,1,1,3,0,3,3,0,no
3,0,0,0,1,0,1,1,3,0,3,3,0,no
3,0,0,0,1,0,1,1,3,0,3,3,0,no
15,0,3,1,3,1,1,1,15,0,15,15,0,no
3,0,0,0,1,0,1,1,3,0,3,3,0,no
3,0,0,0,1,0,1,1,3,0,3,3,0,no
3,0,0,0,1,0,1,1,3,0,3,3,0,no
3,0,0,0,1,0,1,1,3,0,3,3,0,no
4,0,0,0,2,0,1,1,4,0,4,4,0,no
3,0,0,0,1,0,1,1,3,0,3,3,0,no
13,0,3,2,2,1,1,1,13,0,13,13,0,no
3,0,0,0,0,0,1,1,3,0,3,3,0,no
3,1,0,0,1,0,1,1,3,0,3,3,0,no
3,0,0,0,0,0,1,1,3,0,3,3,0,no
4,1,0,0,2,1,1,1,4,0,4,4,0,no
8,1,1,1,1,1,1,1,8,0,8,8,0,no
8,2,1,1,1,1,1,1,8,0,8,8,0,no
3,1,0,0,1,0,1,1,3,0,3,3,0,no
3,2,0,0,1,0,1,1,3,0,3,3,0,no
3,1,0,0,1,0,1,1,3,0,3,3,0,no
3,2,0,0,1,0,1,1,3,0,3,3,0,no
3,1,0,0,1,0,1,1,3,0,3,3,0,no
3,2,0,0,1,0,1,1,3,0,3,3,0,no
3,1,0,0,1,0,1,1,3,0,3,3,0,no
3,2,0,0,1,0,1,1,3,0,3,3,0,no
3,0,0,0,0,0,1,1,3,0,3,3,0,no
3,0,0,0,2,0,1,1,3,0,3,3,0,no
10,1,2,1,2,0,1,1,10,0,10,10,0,no
3,0,0,0,0,0,1,1,3,0,3,3,0,no
4,1,0,0,0,0,1,1,4,0,4,4,0,no
7,0,1,1,2,1,1,1,7,0,7,7,0,no
7,0,1,1,2,1,1,1,7,0,7,7,0,no
24,0,4,1,7,3,1,1,24,0,24,24,0,no
16,0,2,1,4,0,1,1,16,0,16,16,0,no
10,0,1,1,2,0,1,1,10,0,10,10,0,no
10,0,1,1,2,0,1,1,10,0,10,10,0,no
3,0,0,0,1,0,1,1,3,0,3,3,0,no
3,0,0,0,0,0,1,1,3,0,3,3,0,no
3,0,0,0,2,0,1,1,3,0,3,3,0,no
3,0,0,0,2,0,1,1,3,0,3,3,0,no
3,0,0,0,1,0,1,1,3,0,3,3,0,no
7,0,1,1,1,0,1,1,7,0,7,7,0,no
5,0,0,0,1,0,1,1,5,0,5,5,0,no
7,0,1,1,6,0,1,1,7,0,7,7,0,no
7,0,1,1,1,0,1,1,7,0,7,7,0,no
7,0,1,1,1,0,1,1,7,0,7,7,0,no
5,0,0,0,1,0,1,1,5,0,5,5,0,no
7,0,1,1,6,0,1,1,7,0,7,7,0,no
7,0,1,1,1,0,1,1,7,0,7,7,0,no
3,0,0,0,1,0,1,1,3,0,3,3,0,no
3,0,0,0,1,0,1,1,3,0,3,3,0,no
3,0,0,0,1,0,1,1,3,0,3,3,0,no
8,0,2,2,1,0,1,1,8,0,8,8,0,no
6,0,1,1,0,0,1,1,6,0,6,6,0,no
41,2,8,3,5,4,1,1,41,0,41,41,0,no
8,1,1,1,2,0,1,1,8,0,8,8,0,no
12,1,3,1,3,0,1,1,12,0,12,12,0,no
14,1,2,2,4,0,1,1,14,0,14,14,0,no
14,1,2,2,4,0,1,1,14,0,14,14,0,no
13,1,2,2,1,0,1,1,13,0,13,13,0,no
10,1,1,1,1,0,1,1,10,0,10,10,0,no
13,1,2,2,1,0,1,1,13,0,13,13,0,no
10,1,1,1,1,0,1,1,10,0,10,10,0,no
0,0,0,0,1,0,1,1,0,0,0,0,0,no
0,0,0,0,1,0,1,1,0,0,0,0,0,no
0,0,0,0,1,0,1,1,0,0,0,0,0,no
0,0,0,0,1,0,1,1,0,0,0,0,0,no
0,0,0,0,0,0,1,1,0,0,0,0,0,no
0,0,0,0,0,0,1,1,0,0,0,0,0,no
4,2,0,0,1,0,1,1,4,0,4,4,0,no
3,0,0,0,1,0,1,1,3,0,3,3,0,no
3,0,0,0,0,0,1,1,3,0,3,3,0,no
3,0,0,0,0,0,1,1,3,0,3,3,0,no
3,0,0,0,0,0,1,1,3,0,3,3,0,no
3,0,0,0,0,0,1,1,3,0,3,3,0,no
6,1,1,1,1,0,1,1,6,0,6,6,0,no
10,1,3,1,0,0,1,1,10,0,10,10,0,no
3,1,0,0,0,0,1,1,3,0,3,3,0,no
3,1,0,0,0,0,1,1,3,0,3,3,0,no
2,1,0,0,1,0,1,1,2,0,2,2,0,no
3,0,0,0,0,0,1,1,3,0,3,3,0,no
3,0,0,0,0,0,1,1,3,0,3,3,0,no
3,0,0,0,2,0,1,1,3,0,3,3,0,no
3,0,0,0,1,0,1,1,3,0,3,3,0,no
12,0,2,1,2,1,1,1,12,0,12,12,0,no
3,0,0,0,1,0,1,1,3,0,3,3,0,no
3,0,0,0,1,0,1,1,3,0,3,3,0,no
3,0,0,0,1,0,1,1,3,0,3,3,0,no
7,0,1,1,2,1,1,1,7,0,7,7,0,no
3,0,0,0,0,0,1,1,3,0,3,3,0,no
3,1,0,0,1,0,1,1,3,0,3,3,0,no
3,0,0,0,0,0,1,1,3,0,3,3,0,no
4,1,0,0,2,1,1,1,4,0,4,4,0,no
8,1,1,1,1,1,1,1,8,0,8,8,0,no
8,2,1,1,1,1,1,1,8,0,8,8,0,no
3,1,0,0,1,0,1,1,3,0,3,3,0,no
3,2,0,0,1,0,1,1,3,0,3,3,0,no
3,1,0,0,1,0,1,1,3,0,3,3,0,no
3,2,0,0,1,0,1,1,3,0,3,3,0,no
3,1,0,0,1,0,1,1,3,0,3,3,0,no
3,2,0,0,1,0,1,1,3,0,3,3,0,no
3,1,0,0,1,0,1,1,3,0,3,3,0,no
3,2,0,0,1,0,1,1,3,0,3,3,0,no
3,0,0,0,0,0,1,1,3,0,3,3,0,no
3,0,0,0,2,0,1,1,3,0,3,3,0,no
7,1,1,1,1,0,1,1,7,0,7,7,0,no
3,0,0,0,0,0,1,1,3,0,3,3,0,no
4,1,0,0,0,0,1,1,4,0,4,4,0,no
7,0,1,1,2,1,1,1,7,0,7,7,0,no
7,0,1,1,2,1,1,1,7,0,7,7,0,no
12,0,1,1,6,3,1,1,12,0,12,12,0,no
6,0,0,0,2,0,1,1,6,0,6,6,0,no
6,0,0,0,2,0,1,1,6,0,6,6,0,no
3,0,0,0,1,0,1,1,3,0,3,3,0,no
3,0,0,0,0,0,1,1,3,0,3,3,0,no
3,0,0,0,2,0,1,1,3,0,3,3,0,no
3,0,0,0,2,0,1,1,3,0,3,3,0,no
3,0,0,0,1,0,1,1,3,0,3,3,0,no
3,0,0,0,1,0,1,1,3,0,3,3,0,no
3,0,0,0,1,0,1,1,3,0,3,3,0,no
3,0,0,0,1,0,1,1,3,0,3,3,0,no
3,0,0,0,1,0,1,1,3,0,3,3,0,no
4,0,1,1,1,0,1,1,4,0,4,4,0,no
33,2,6,3,3,4,1,1,33,0,33,33,0,no
8,1,1,1,2,0,1,1,8,0,8,8,0,no
9,1,2,1,3,0,1,1,9,0,9,9,0,no
9,1,1,1,1,0,1,1,9,0,9,9,0,no
0,0,0,0,1,0,1,1,0,0,0,0,0,no
0,0,0,0,0,0,1,1,0,0,0,0,0,no
3,1,0,0,0,0,1,1,3,0,3,3,1,no
2,1,0,0,1,0,1,1,2,0,2,2,0,no
3,0,0,0,1,0,1,1,3,0,3,3,0,no
3,0,0,0,0,0,1,1,3,0,3,3,0,no
3,0,0,0,0,0,1,1,3,0,3,3,0,no
3,0,0,0,2,0,1,1,3,0,3,3,0,no
3,0,0,0,0,0,1,1,3,0,3,3,0,no
3,0,0,0,0,0,1,1,3,0,3,3,0,no
3,0,0,0,0,0,1,1,3,0,3,3,0,no
13,0,2,2,1,3,1,1,13,0,13,13,0,no
10,0,1,1,1,2,1,1,10,0,10,10,0,no
3,0,0,0,0,0,1,1,3,0,3,3,1,no
3,0,0,0,1,0,1,1,3,0,3,3,0,no
3,0,0,0,1,0,1,1,3,0,3,3,0,no
30,0,8,1,8,1,7,2,32,2,15,4.857143,1,no
3,0,0,0,1,0,3,1,5,2,3,2.333333,1,no
3,0,0,0,1,0,2,1,4,1,3,2.5,0,no
3,0,0,0,1,0,1,1,3,0,3,3,0,no
3,0,0,0,1,0,3,1,5,2,3,2.333333,1,no
3,0,0,0,1,0,2,1,4,1,3,2.5,0,no
3,0,0,0,1,0,1,1,3,0,3,3,1,no
3,0,0,0,1,0,2,1,4,1,3,2.5,0,no
9,0,0,0,2,0,7,2,10,1,3,1.571429,1,no
3,0,0,0,1,0,1,1,3,0,3,3,0,no
7,0,1,1,2,1,2,1,7,0,4,3.5,1,no
3,0,0,0,0,0,1,1,3,0,3,3,0,no
3,1,0,0,1,0,1,1,3,0,3,3,0,no
3,0,0,0,0,0,1,1,3,0,3,3,0,no
4,1,0,0,2,1,1,1,4,0,4,4,1,no
8,1,1,1,1,1,1,1,8,0,8,8,0,no
8,2,1,1,1,1,1,1,8,0,8,8,0,no
3,1,0,0,1,0,1,1,3,0,3,3,0,no
3,2,0,0,1,0,1,1,3,0,3,3,0,no
3,1,0,0,1,0,1,1,3,0,3,3,0,no
3,2,0,0,1,0,1,1,3,0,3,3,0,no
3,1,0,0,1,0,1,1,3,0,3,3,0,no
3,2,0,0,1,0,1,1,3,0,3,3,0,no
3,1,0,0,1,0,1,1,3,0,3,3,0,no
3,2,0,0,1,0,1,1,3,0,3,3,0,no
3,0,0,0,0,0,1,1,3,0,3,3,0,no
3,0,0,0,2,0,1,1,3,0,3,3,1,no
25,1,7,1,7,0,7,2,27,2,10,4.142857,1,no
3,0,0,0,0,0,2,1,3,0,2,1.5,1,no
4,1,0,0,0,0,1,1,4,0,4,4,1,no
7,0,1,1,2,1,2,1,7,0,6,3.5,1,no
7,0,1,1,2,1,2,1,7,0,6,3.5,1,no
40,0,8,1,12,3,7,2,41,1,8,6,1,no
22,0,1,1,9,0,7,2,23,1,7,3.428571,1,no
6,0,0,0,2,0,3,1,7,1,5,2.666667,1,no
6,0,0,0,1,0,2,1,7,1,6,4,0,no
6,0,0,0,1,0,1,1,6,0,6,6,0,no
6,0,0,0,1,0,3,1,7,1,5,2.666667,1,no
6,0,0,0,1,0,2,1,7,1,6,4,0,no
6,0,0,0,1,0,1,1,6,0,6,6,1,no
10,0,1,1,2,0,2,1,11,1,10,6,0,no
3,0,0,0,1,0,2,1,4,1,3,2.5,1,no
3,0,0,0,0,0,2,1,5,2,5,3.5,1,no
3,0,0,0,1,0,2,1,4,1,3,2.5,1,no
3,0,0,0,2,0,1,1,3,0,3,3,0,no
3,0,0,0,2,0,1,1,3,0,3,3,1,no
3,0,0,0,1,0,1,1,3,0,3,3,0,no
3,0,0,0,0,0,1,1,3,0,3,3,0,no
3,0,0,0,0,0,1,1,3,0,3,3,0,no
3,0,0,0,0,0,2,1,4,1,3,2.5,1,no
10,0,1,1,1,2,1,1,10,0,10,10,0,no
3,0,0,0,0,0,1,1,3,0,3,3,1,no
7,0,1,1,1,0,1,1,7,0,7,7,0,no
5,0,0,0,1,0,2,1,6,1,5,3.5,0,no
7,0,1,1,6,0,1,1,7,0,7,7,0,no
7,0,1,1,1,0,1,1,7,0,7,7,0,no
3,0,0,0,1,0,3,1,5,2,3,2.333333,1,no
3,0,0,0,1,0,2,1,4,1,3,2.5,0,no
3,0,0,0,1,0,1,1,3,0,3,3,0,no
3,0,0,0,1,0,3,1,5,2,3,2.333333,1,no
3,0,0,0,1,0,2,1,4,1,3,2.5,0,no
3,0,0,0,1,0,1,1,3,0,3,3,1,no
3,0,0,0,1,0,2,1,4,1,3,2.5,0,no
3,0,0,0,1,0,1,1,3,0,3,3,1,no
3,0,0,0,1,0,2,1,4,1,3,2.5,1,no
5,0,1,1,0,0,2,1,5,0,4,2.5,1,no
73,2,13,3,5,5,7,2,74,1,35,10.714286,1,no
8,1,1,1,2,0,1,1,8,0,8,8,0,no
27,1,8,1,3,0,6,2,28,1,12,4.833333,1,no
14,1,2,2,4,0,2,1,15,1,14,8,0,no
9,1,1,1,1,0,3,1,10,1,8,3.666667,1,no
6,1,0,0,0,0,2,1,7,1,6,4,0,no
6,1,0,0,0,0,1,1,6,0,6,6,0,no
6,1,0,0,0,0,3,1,7,1,5,2.666667,1,no
9,1,1,1,0,0,2,1,10,1,9,5.5,0,no
5,1,0,0,0,0,2,1,6,1,5,3.5,0,no
6,1,0,0,0,0,1,1,6,0,6,6,1,no
13,1,2,2,1,0,2,1,14,1,13,7.5,0,no
10,1,1,1,1,0,2,1,11,1,10,6,0,no
0,0,0,0,1,0,1,1,0,0,0,0,1,no
0,0,0,0,0,0,1,1,0,0,0,0,0,no
0,0,0,0,0,0,1,1,0,0,0,0,0,no
0,0,0,0,0,0,1,1,0,0,0,0,1,no
0,0,0,0,0,0,1,1,0,0,0,0,0,no
0,0,0,0,0,0,1,1,0,0,0,0,1,no
0,0,0,0,1,0,1,1,0,0,0,0,0,no
0,0,0,0,1,0,1,1,0,0,0,0,0,no
0,0,0,0,0,0,1,1,0,0,0,0,1,no
0,0,0,0,0,0,1,1,0,0,0,0,0,no
0,0,0,0,0,0,1,1,0,0,0,0,0,no
0,0,0,0,0,0,1,1,0,0,0,0,1,no
0,0,0,0,0,0,1,1,0,0,0,0,0,no
0,0,0,0,0,0,1,1,0,0,0,0,1,no
0,0,0,0,0,0,1,1,0,0,0,0,0,no
3,1,0,0,0,0,1,1,3,0,3,3,0,no
2,1,0,0,1,0,1,1,2,0,2,2,0,no
3,0,0,0,0,0,1,1,3,0,3,3,0,no
3,0,0,0,0,0,1,1,3,0,3,3,0,no
3,0,0,0,2,0,1,1,3,0,3,3,0,no
3,0,0,0,0,0,1,1,3,0,3,3,0,no
13,0,2,2,1,3,1,1,13,0,13,13,0,no
10,0,1,1,1,2,1,1,10,0,10,10,0,no
3,0,0,0,0,0,1,1,3,0,3,3,1,no
3,0,0,0,1,0,1,1,3,0,3,3,0,no
3,0,0,0,1,0,1,1,3,0,3,3,0,no
21,0,5,1,5,1,4,2,22,1,15,5.75,1,no
3,0,0,0,1,0,1,1,3,0,3,3,0,no
3,0,0,0,1,0,1,1,3,0,3,3,0,no
3,0,0,0,1,0,1,1,3,0,3,3,1,no
3,0,0,0,1,0,1,1,3,0,3,3,0,no
6,0,0,0,1,0,4,2,7,1,4,2,1,no
3,0,0,0,1,0,1,1,3,0,3,3,0,no
7,0,1,1,2,1,1,1,7,0,7,7,0,no
3,0,0,0,0,0,1,1,3,0,3,3,0,no
3,1,0,0,1,0,1,1,3,0,3,3,0,no
3,0,0,0,0,0,1,1,3,0,3,3,0,no
4,1,0,0,2,1,1,1,4,0,4,4,0,no
8,1,1,1,1,1,1,1,8,0,8,8,0,no
8,2,1,1,1,1,1,1,8,0,8,8,0,no
3,1,0,0,1,0,1,1,3,0,3,3,0,no
3,2,0,0,1,0,1,1,3,0,3,3,0,no
3,1,0,0,1,0,1,1,3,0,3,3,0,no
3,2,0,0,1,0,1,1,3,0,3,3,0,no
3,1,0,0,1,0,1,1,3,0,3,3,0,no
3,2,0,0,1,0,1,1,3,0,3,3,0,no
3,1,0,0,1,0,1,1,3,0,3,3,0,no
3,2,0,0,1,0,1,1,3,0,3,3,0,no
3,0,0,0,0,0,1,1,3,0,3,3,0,no
3,0,0,0,2,0,1,1,3,0,3,3,0,no
16,1,4,1,4,0,4,2,17,1,10,4.5,1,no
3,0,0,0,0,0,1,1,3,0,3,3,0,no
4,1,0,0,0,0,1,1,4,0,4,4,0,no
7,0,1,1,2,1,1,1,7,0,7,7,0,no
7,0,1,1,2,1,1,1,7,0,7,7,0,no
28,0,5,1,9,3,4,2,29,1,20,7.5,1,no
16,0,1,1,5,0,4,2,17,1,12,4.5,1,no
6,0,0,0,1,0,1,1,6,0,6,6,0,no
6,0,0,0,1,0,1,1,6,0,6,6,0,no
6,0,0,0,1,0,1,1,6,0,6,6,1,no
10,0,1,1,2,0,1,1,10,0,10,10,0,no
3,0,0,0,1,0,1,1,3,0,3,3,0,no
3,0,0,0,0,0,1,1,3,0,3,3,0,no
3,0,0,0,2,0,1,1,3,0,3,3,0,no
3,0,0,0,2,0,1,1,3,0,3,3,0,no
3,0,0,0,1,0,1,1,3,0,3,3,0,no
3,0,0,0,0,0,1,1,3,0,3,3,0,no
10,0,1,1,1,2,1,1,10,0,10,10,0,no
3,0,0,0,0,0,1,1,3,0,3,3,1,no
7,0,1,1,1,0,1,1,7,0,7,7,0,no
5,0,0,0,1,0,1,1,5,0,5,5,0,no
7,0,1,1,6,0,1,1,7,0,7,7,0,no
7,0,1,1,1,0,1,1,7,0,7,7,0,no
3,0,0,0,1,0,1,1,3,0,3,3,0,no
3,0,0,0,1,0,1,1,3,0,3,3,0,no
3,0,0,0,1,0,1,1,3,0,3,3,1,no
3,0,0,0,1,0,1,1,3,0,3,3,0,no
3,0,0,0,1,0,1,1,3,0,3,3,0,no
3,0,0,0,1,0,1,1,3,0,3,3,0,no
5,0,1,1,0,0,1,1,5,0,5,5,0,no
49,2,9,3,3,3,4,2,50,1,37,12.75,1,no
8,1,1,1,2,0,1,1,8,0,8,8,0,no
18,1,5,1,3,0,4,2,19,1,12,5,1,no
14,1,2,2,4,0,1,1,14,0,14,14,0,no
6,1,0,0,0,0,1,1,6,0,6,6,0,no
9,1,1,1,0,0,1,1,9,0,9,9,0,no
5,1,0,0,0,0,1,1,5,0,5,5,0,no
6,1,0,0,0,0,1,1,6,0,6,6,1,no
13,1,2,2,1,0,1,1,13,0,13,13,0,no
10,1,1,1,1,0,1,1,10,0,10,10,0,no
0,0,0,0,0,0,1,1,0,0,0,0,0,no
0,0,0,0,0,0,1,1,0,0,0,0,0,no
0,0,0,0,0,0,1,1,0,0,0,0,1,no
0,0,0,0,1,0,1,1,0,0,0,0,0,no
0,0,0,0,1,0,1,1,0,0,0,0,0,no
0,0,0,0,0,0,1,1,0,0,0,0,0,no
0,0,0,0,0,0,1,1,0,0,0,0,0,no
0,0,0,0,0,0,1,1,0,0,0,0,1,no
0,0,0,0,0,0,1,1,0,0,0,0,0,no
3,1,0,0,0,0,1,1,3,0,3,3,1,no
2,1,0,0,1,0,1,1,2,0,2,2,1,no
3,0,0,0,0,0,1,1,3,0,3,3,1,no
3,0,0,0,0,0,1,1,3,0,3,3,1,no
3,0,0,0,2,0,1,1,3,0,3,3,1,no
3,0,0,0,0,0,1,1,3,0,3,3,0,no
3,0,0,0,1,0,1,1,3,0,3,3,1,no
3,0,0,0,1,0,1,1,3,0,3,3,1,no
15,0,3,1,3,1,3,1,16,1,12,5.666667,1,no
3,0,0,0,1,0,2,1,4,1,3,2.5,1,no
3,0,0,0,1,0,2,1,4,1,3,2.5,1,no
4,0,0,0,1,0,2,1,4,0,3,2,1,no
3,0,0,0,1,0,1,1,3,0,3,3,1,no
15,0,3,1,2,1,2,1,15,0,8,7.5,1,no
3,0,0,0,0,0,1,1,3,0,3,3,1,no
3,1,0,0,1,0,1,1,3,0,3,3,1,no
3,0,0,0,0,0,1,1,3,0,3,3,1,no
4,1,0,0,2,1,1,1,4,0,4,4,1,no
8,1,1,1,1,1,1,1,8,0,8,8,1,no
8,2,1,1,1,1,1,1,8,0,8,8,1,no
3,1,0,0,1,0,1,1,3,0,3,3,1,no
3,2,0,0,1,0,1,1,3,0,3,3,1,no
3,1,0,0,1,0,1,1,3,0,3,3,1,no
3,2,0,0,1,0,1,1,3,0,3,3,1,no
3,1,0,0,1,0,1,1,3,0,3,3,1,no
3,2,0,0,1,0,1,1,3,0,3,3,1,no
3,1,0,0,1,0,1,1,3,0,3,3,1,no
3,2,0,0,1,0,1,1,3,0,3,3,1,no
3,0,0,0,0,0,1,1,3,0,3,3,1,no
3,0,0,0,2,0,1,1,3,0,3,3,1,no
10,1,2,1,2,0,3,1,11,1,7,4,1,no
3,0,0,0,0,0,2,1,3,0,2,1.5,1,no
4,1,0,0,0,0,1,1,4,0,4,4,1,no
7,0,1,1,2,1,2,1,7,0,6,3.5,1,no
7,0,1,1,2,1,2,1,7,0,6,3.5,1,no
20,0,3,1,7,3,2,1,20,0,12,10,1,no
12,0,1,1,3,0,2,1,12,0,7,6,1,no
6,0,0,0,1,0,2,1,6,0,5,3,1,no
10,0,1,1,2,0,2,1,10,0,5,5,1,no
3,0,0,0,1,0,2,1,4,1,3,2.5,1,no
3,0,0,0,0,0,2,1,5,2,5,3.5,1,no
3,0,0,0,2,0,1,1,3,0,3,3,1,no
3,0,0,0,2,0,1,1,3,0,3,3,1,no
3,0,0,0,1,0,1,1,3,0,3,3,1,no
3,0,0,0,0,0,2,1,4,1,3,2.5,1,no
7,0,1,1,1,0,2,1,7,0,4,3.5,1,no
5,0,0,0,1,0,1,1,5,0,5,5,1,no
7,0,1,1,6,0,1,1,7,0,7,7,1,no
7,0,1,1,1,0,1,1,7,0,7,7,1,no
3,0,0,0,1,0,2,1,4,1,3,2.5,1,no
3,0,0,0,1,0,2,1,4,1,3,2.5,1,no
3,0,0,0,1,0,1,1,3,0,3,3,1,no
9,0,2,1,2,0,2,1,9,0,6,4.5,1,no
5,0,1,1,0,0,1,1,5,0,5,5,1,no
37,2,7,3,3,3,3,1,37,0,29,12.333333,1,no
8,1,1,1,2,0,1,1,8,0,8,8,1,no
12,1,3,1,3,0,2,1,12,0,9,6,1,no
14,1,2,2,4,0,2,1,14,0,9,7,1,no
6,1,0,0,0,0,2,1,6,0,5,3,1,no
13,1,2,2,1,0,2,1,13,0,8,6.5,1,no
10,1,1,1,1,0,2,1,10,0,5,5,1,no
0,0,0,0,0,0,1,1,0,0,0,0,1,no
0,0,0,0,1,0,1,1,0,0,0,0,1,no
0,0,0,0,1,0,1,1,0,0,0,0,1,no
0,0,0,0,0,0,1,1,0,0,0,0,1,no
0,0,0,0,0,0,1,1,0,0,0,0,1,no
3,1,0,0,0,0,1,1,3,0,3,3,1,no
2,1,0,0,1,0,1,1,2,0,2,2,1,no
3,0,0,0,0,0,1,1,3,0,3,3,1,no
3,0,0,0,0,0,1,1,3,0,3,3,1,no
3,0,0,0,2,0,1,1,3,0,3,3,1,no
12,0,2,1,2,1,2,1,13,1,12,7,1,no
3,0,0,0,0,0,1,1,3,0,3,3,1,no
3,0,0,0,1,0,2,1,4,1,3,2.5,1,no
3,0,0,0,0,0,2,1,3,0,2,1.5,1,no
3,0,0,0,1,0,1,1,3,0,3,3,1,no
11,0,2,1,2,1,2,1,11,0,6,5.5,1,no
3,0,0,0,0,0,1,1,3,0,3,3,1,no
3,1,0,0,1,0,1,1,3,0,3,3,1,no
3,0,0,0,0,0,1,1,3,0,3,3,1,no
4,1,0,0,2,1,1,1,4,0,4,4,1,no
8,1,1,1,1,1,1,1,8,0,8,8,1,no
8,2,1,1,1,1,1,1,8,0,8,8,1,no
3,1,0,0,1,0,1,1,3,0,3,3,1,no
3,2,0,0,1,0,1,1,3,0,3,3,1,no
3,1,0,0,1,0,1,1,3,0,3,3,1,no
3,2,0,0,1,0,1,1,3,0,3,3,1,no
3,1,0,0,1,0,1,1,3,0,3,3,1,no
3,2,0,0,1,0,1,1,3,0,3,3,1,no
3,1,0,0,1,0,1,1,3,0,3,3,1,no
3,2,0,0,1,0,1,1,3,0,3,3,1,no
3,0,0,0,0,0,1,1,3,0,3,3,1,no
3,0,0,0,2,0,1,1,3,0,3,3,1,no
7,1,1,1,1,0,2,1,8,1,7,4.5,1,no
3,0,0,0,0,0,2,1,3,0,2,1.5,1,no
4,1,0,0,0,0,1,1,4,0,4,4,1,no
7,0,1,1,2,1,2,1,7,0,6,3.5,1,no
7,0,1,1,2,1,2,1,7,0,6,3.5,1,no
12,0,1,1,6,3,2,1,12,0,8,6,1,no
6,0,0,0,1,0,2,1,7,1,7,4,1,no
6,0,0,0,1,0,2,1,6,0,5,3,1,no
3,0,0,0,1,0,2,1,4,1,3,2.5,1,no
3,0,0,0,0,0,2,1,5,2,5,3.5,1,no
3,0,0,0,2,0,1,1,3,0,3,3,1,no
3,0,0,0,2,0,1,1,3,0,3,3,1,no
3,0,0,0,1,0,1,1,3,0,3,3,1,no
3,0,0,0,0,0,2,1,4,1,3,2.5,1,no
3,0,0,0,1,0,2,1,4,1,3,2.5,1,no
3,0,0,0,1,0,1,1,3,0,3,3,1,no
6,0,1,1,2,0,2,1,6,0,3,3,1,no
4,0,1,1,1,0,1,1,4,0,4,4,1,no
27,2,5,3,1,2,2,1,27,0,24,13.5,1,no
8,1,1,1,2,0,1,1,8,0,8,8,1,no
9,1,2,1,3,0,1,1,9,0,9,9,1,no
9,1,1,1,0,0,2,1,9,0,8,4.5,1,no
0,0,0,0,0,0,1,1,0,0,0,0,1,no
0,0,0,0,0,0,1,1,0,0,0,0,1,no
15,1,2,2,1,6,1,1,15,0,15,15,0,no
7,1,1,1,0,2,1,1,7,0,7,7,0,no
14,1,2,2,1,6,1,1,14,0,14,14,0,no
19,2,5,2,0,3,1,1,19,0,19,19,0,no
14,2,4,2,1,3,1,1,14,0,14,14,0,no
7,1,1,1,0,2,1,1,7,0,7,7,0,no
3,2,0,0,0,0,1,1,3,0,3,3,0,no
6,2,0,0,0,1,1,1,6,0,6,6,0,no
13,1,1,1,0,3,1,1,13,0,13,13,0,no
16,3,4,2,1,5,1,1,16,0,16,16,0,no
3,1,0,0,0,0,1,1,3,0,3,3,0,no
3,2,0,0,0,0,1,1,3,0,3,3,0,no
6,3,0,0,1,3,1,1,6,0,6,6,0,no
3,1,0,0,0,0,1,1,3,0,3,3,0,no
3,2,0,0,0,0,1,1,3,0,3,3,0,no
7,1,1,1,0,0,1,1,7,0,7,7,0,no
3,1,0,0,0,0,1,1,3,0,3,3,0,no
9,1,1,1,0,1,1,1,9,0,9,9,0,no
10,1,2,1,0,1,1,1,10,0,10,10,0,no
14,1,2,1,0,1,1,1,14,0,14,14,0,no
5,1,0,0,0,1,1,1,5,0,5,5,0,no
15,2,1,1,1,0,4,2,20,5,12,6.25,1,no
4,3,0,0,0,1,1,1,4,0,4,4,1,no
8,0,0,0,0,0,2,1,8,0,4,4,0,no
8,0,0,0,0,0,1,1,8,0,8,8,1,no
24,0,4,3,0,10,4,2,25,1,19,6.5,1,no
3,0,0,0,0,0,1,1,3,0,3,3,0,no
3,0,0,0,0,0,1,1,3,0,3,3,0,no
3,0,0,0,0,0,2,1,4,1,3,2.5,1,no
3,0,0,0,0,0,1,1,3,0,3,3,0,no
3,0,0,0,0,0,1,1,3,0,3,3,1,no
22,2,2,1,0,1,4,1,23,1,13,6,0,no
69,1,12,3,2,16,3,1,69,0,38,23,1,no
22,1,2,1,0,1,2,1,22,0,12,11,0,no
22,1,2,1,0,3,4,1,30,8,20,9.5,0,no
3,0,0,0,0,0,2,1,4,1,3,2.5,0,no
3,0,0,0,0,0,1,1,3,0,3,3,0,no
22,1,2,1,0,1,2,1,22,0,17,11,0,no
3,2,0,0,0,0,1,1,3,0,3,3,0,no
3,2,0,0,0,0,1,1,3,0,3,3,0,no
3,2,0,0,0,0,1,1,3,0,3,3,0,no
3,2,0,0,0,0,1,1,3,0,3,3,0,no
7,2,1,1,0,2,2,1,7,0,4,3.5,0,no
7,2,1,1,0,0,1,1,7,0,7,7,0,no
7,2,1,1,0,0,1,1,7,0,7,7,0,no
7,2,1,1,0,0,1,1,7,0,7,7,0,no
3,2,0,0,0,0,1,1,3,0,3,3,0,no
7,2,1,1,0,0,1,1,7,0,7,7,0,no
4,2,0,0,0,0,1,1,4,0,4,4,0,no
5,0,0,0,0,1,1,1,5,0,5,5,0,no
5,1,1,1,0,0,2,1,5,0,3,2.5,0,no
8,0,2,2,0,0,1,1,8,0,8,8,0,no
6,1,0,0,1,0,1,1,6,0,6,6,0,no
3,0,0,0,0,0,1,1,3,0,3,3,0,no
6,1,0,0,1,0,1,1,6,0,6,6,0,no
3,1,0,0,0,0,1,1,3,0,3,3,0,no
14,1,2,2,0,4,1,1,14,0,14,14,0,no
3,0,0,0,0,0,1,1,3,0,3,3,0,no
27,0,1,1,0,0,2,1,27,0,26,13.5,1,no
6,3,0,0,0,0,1,1,6,0,6,6,0,no
3,1,0,0,1,0,1,1,3,0,3,3,0,no
3,0,0,0,0,0,1,1,3,0,3,3,0,no
3,0,0,0,0,0,1,1,3,0,3,3,0,no
3,0,0,0,0,0,1,1,3,0,3,3,0,no
7,0,1,1,0,1,1,1,7,0,7,7,0,no
47,1,7,2,1,5,4,1,47,0,44,11.75,1,no
3,2,0,0,0,0,1,1,3,0,3,3,0,no
23,0,0,0,0,2,2,1,23,0,22,11.5,1,no
15,0,3,2,1,1,2,1,16,1,15,8.5,1,no
8,1,1,1,1,0,1,1,8,0,8,8,0,no
3,0,0,0,0,0,1,1,3,0,3,3,0,no
5,0,0,0,0,1,1,1,5,0,5,5,0,no
4,1,0,0,0,1,1,1,4,0,4,4,0,no
5,1,1,1,0,0,1,1,5,0,5,5,0,no
39,1,7,3,0,7,3,2,42,3,41,15,1,no
38,0,6,3,2,5,3,1,103,65,87,56,1,no
9,0,1,1,0,1,1,1,9,0,9,9,0,no
14,1,2,1,0,2,1,1,14,0,14,14,0,no
4,5,0,0,0,0,1,1,4,0,4,4,0,no
3,3,0,0,0,0,1,1,3,0,3,3,0,no
24,1,3,1,0,7,3,1,25,1,23,8.666667,0,no
15,1,2,1,0,4,1,1,15,0,15,15,0,no
13,1,1,0,0,4,3,1,15,2,13,5.666667,0,no
15,1,3,1,0,1,2,1,23,8,23,15.5,1,no
11,1,2,1,1,1,2,1,12,1,11,6.5,0,no
10,1,2,1,0,0,1,1,10,0,10,10,0,no
7,1,0,0,0,0,2,1,8,1,7,4.5,1,no
18,1,3,1,0,2,1,1,18,0,18,18,1,no
15,1,3,2,0,3,1,1,15,0,15,15,0,no
9,1,2,2,0,1,1,1,9,0,9,9,0,no
0,1,0,0,0,0,1,1,0,0,0,0,0,no
2,0,0,0,1,0,1,1,2,0,2,2,0,no
3,0,0,0,0,0,1,1,3,0,3,3,0,no
3,1,0,0,0,0,1,1,3,0,3,3,0,no
3,0,0,0,0,0,1,1,3,0,3,3,0,no
3,0,0,0,0,0,1,1,3,0,3,3,0,no
3,1,0,0,0,0,1,1,3,0,3,3,0,no
9,1,1,1,0,1,1,1,9,0,9,9,0,no
24,1,4,3,0,3,1,1,24,0,24,24,0,no
6,1,1,1,0,0,1,1,6,0,6,6,0,no
23,1,4,2,0,5,1,1,23,0,23,23,0,no
61,1,7,3,3,13,4,2,68,7,66,18.75,1,no
7,5,1,1,0,0,2,1,10,3,10,6.5,1,no
14,1,2,1,0,2,1,1,14,0,14,14,0,no
23,1,4,2,1,1,1,1,23,0,23,23,0,no
30,1,5,3,0,11,2,2,30,0,29,15,1,no
10,1,3,2,1,0,1,1,10,0,10,10,0,no
24,1,5,3,0,1,1,1,24,0,24,24,0,no
7,0,1,1,0,2,2,1,8,1,7,4.5,0,no
21,0,4,3,0,4,2,1,21,0,16,10.5,0,no
44,1,8,4,0,5,2,1,44,0,43,22,0,no
16,1,2,1,0,2,1,1,16,0,16,16,0,no
3,1,0,0,0,0,1,1,3,0,3,3,0,no
17,3,3,2,1,3,2,2,18,1,17,9.5,1,no
9,4,2,2,1,1,2,2,9,0,8,4.5,1,no
16,3,4,3,1,3,2,1,16,0,13,8,0,no
3,3,0,0,0,0,1,1,3,0,3,3,0,no
6,4,0,0,0,0,1,1,6,0,6,6,0,no
33,0,8,3,1,4,2,1,34,1,33,17.5,1,no
3,0,1,0,0,0,1,1,3,0,3,3,0,no
43,1,6,4,1,7,1,1,43,0,43,43,0,no
17,0,4,2,0,4,3,1,19,2,18,7,1,no
8,0,1,1,0,1,2,1,21,13,21,17,1,no
9,0,1,1,2,2,2,2,10,1,9,5.5,1,no
59,1,12,5,0,8,1,1,59,0,59,59,1,no
18,0,4,2,0,1,1,1,18,0,18,18,0,no
11,1,1,1,0,1,1,1,11,0,11,11,0,no
11,1,1,1,0,1,1,1,11,0,11,11,0,no
42,1,6,4,1,7,1,1,42,0,42,42,0,no
4,1,0,0,0,0,1,1,4,0,4,4,0,no
0,1,0,0,0,0,1,1,0,0,0,0,0,no
10,0,0,0,0,2,1,1,10,0,10,10,0,no
10,2,1,1,2,1,2,2,11,1,10,6,1,no
0,0,0,0,0,0,1,1,0,0,0,0,0,no
5,2,0,0,0,0,1,1,5,0,5,5,0,no
15,2,3,1,1,1,2,2,16,1,15,8.5,1,no
6,1,0,0,0,1,2,2,7,1,6,4,0,no
26,1,1,1,0,11,3,3,28,2,26,10,1,no
4,1,0,0,0,1,1,1,4,0,4,4,0,no
5,0,0,0,0,0,1,1,5,0,5,5,0,no
3,5,0,0,0,0,1,1,3,0,3,3,0,no
11,1,1,1,0,5,2,2,12,1,11,6.5,1,no
18,1,1,1,0,8,2,2,19,1,18,10,1,no
4,1,0,0,0,1,1,1,4,0,4,4,0,no
3,0,0,0,0,0,2,2,4,1,3,2.5,0,no
3,4,0,0,0,0,1,1,3,0,3,3,0,no
10,1,0,0,0,1,1,1,10,0,10,10,0,no
7,0,0,0,0,1,1,1,7,0,7,7,0,no
3,1,0,0,0,0,1,1,3,0,3,3,0,no
17,2,1,1,0,5,1,1,17,0,17,17,0,no
7,1,1,1,0,1,2,2,11,4,11,7.5,1,no
7,0,1,1,0,0,1,1,7,0,7,7,0,no
3,0,0,0,0,0,1,1,3,0,3,3,0,no
3,0,0,0,0,0,1,1,3,0,3,3,0,no
7,0,1,1,0,0,1,1,7,0,7,7,0,no
3,0,0,0,0,0,1,1,3,0,3,3,1,no
3,0,0,0,0,0,1,1,3,0,3,3,0,no
3,0,0,0,0,0,1,1,3,0,3,3,0,no
10,0,2,2,1,2,1,1,10,0,10,10,0,no
3,0,0,0,0,0,1,1,3,0,3,3,0,no
3,0,0,0,0,0,1,1,3,0,3,3,1,no
3,0,0,0,0,0,1,1,3,0,3,3,0,no
3,0,0,0,0,0,1,1,3,0,3,3,0,no
3,0,0,0,0,0,1,1,3,0,3,3,0,no
3,0,0,0,0,0,1,1,3,0,3,3,0,no
3,0,0,0,0,0,1,1,3,0,3,3,0,no
3,0,0,0,0,0,1,1,3,0,3,3,0,no
3,0,0,0,0,0,1,1,3,0,3,3,0,no
3,0,0,0,0,0,1,1,3,0,3,3,0,no
3,0,0,0,0,0,1,1,3,0,3,3,0,no
3,0,0,0,0,0,1,1,3,0,3,3,0,no
6,0,1,1,0,0,1,1,6,0,6,6,0,no
3,0,0,0,0,0,1,1,3,0,3,3,0,no
3,0,0,0,0,0,1,1,3,0,3,3,1,no
3,0,0,0,0,0,1,1,3,0,3,3,0,no
3,0,0,0,0,0,1,1,3,0,3,3,0,no
3,0,0,0,0,0,2,2,4,1,3,2.5,1,no
3,0,0,0,0,0,1,1,3,0,3,3,0,no
6,0,1,1,0,0,1,1,6,0,6,6,0,no
3,0,0,0,0,0,1,1,3,0,3,3,0,no
3,0,0,0,0,0,1,1,3,0,3,3,0,no
3,0,0,0,0,0,1,1,3,0,3,3,1,no
3,0,0,0,0,0,1,1,3,0,3,3,0,no
3,0,0,0,0,0,1,1,3,0,3,3,0,no
6,0,1,1,0,0,1,1,6,0,6,6,0,no
3,0,0,0,0,0,1,1,3,0,3,3,0,no
7,0,1,1,1,1,3,2,8,1,4,3,1,no
3,1,0,0,0,0,1,1,3,0,3,3,0,no
3,1,0,0,0,0,1,1,3,0,3,3,0,no
3,0,0,0,0,0,1,1,3,0,3,3,0,no
3,1,0,0,0,0,1,1,3,0,3,3,0,no
3,0,0,0,0,0,1,1,3,0,3,3,0,no
3,2,0,0,0,0,1,1,3,0,3,3,0,no
3,1,0,0,0,0,1,1,3,0,3,3,0,no
3,0,0,0,0,0,1,1,3,0,3,3,0,no
3,0,0,0,0,0,1,1,3,0,3,3,0,no
3,0,0,0,0,0,1,1,3,0,3,3,0,no
3,0,0,0,0,0,1,1,3,0,3,3,0,no
4,1,0,0,0,0,1,1,4,0,4,4,0,no
5,0,0,0,0,0,1,1,5,0,5,5,0,no
3,0,0,0,0,0,1,1,3,0,3,3,0,no
7,0,1,1,0,0,1,1,7,0,7,7,0,no
8,0,1,1,0,1,1,1,8,0,8,8,0,no
4,1,0,0,0,0,1,1,4,0,4,4,0,no
18,0,6,3,2,2,2,2,18,0,15,9,0,yes
4,2,0,0,1,0,3,3,6,2,4,2.666667,1,no
3,1,0,0,0,0,1,1,3,0,3,3,0,no
3,1,0,0,0,0,1,1,3,0,3,3,0,no
7,1,2,1,2,1,1,1,7,0,7,7,0,no
14,2,2,1,1,2,1,1,14,0,14,14,0,no
16,3,0,0,0,0,1,1,16,0,16,16,0,no
4,2,0,0,0,0,1,1,4,0,4,4,0,no
4,2,0,0,0,0,1,1,4,0,4,4,0,no
3,1,0,0,0,0,1,1,3,0,3,3,0,no
4,0,0,0,0,0,1,1,4,0,4,4,0,no
0,0,0,0,0,0,1,1,0,0,0,0,0,no
3,1,0,0,0,0,1,1,3,0,3,3,0,no
3,1,0,0,0,0,1,1,3,0,3,3,0,no
3,1,0,0,0,0,1,1,3,0,3,3,0,no
3,0,0,0,0,0,1,1,3,0,3,3,0,no
8,1,1,1,0,1,1,1,8,0,8,8,0,no
3,0,0,0,0,0,1,1,3,0,3,3,0,no
3,0,0,0,0,0,1,1,3,0,3,3,1,no
12,1,2,1,0,1,1,1,12,0,12,12,0,no
5,2,0,0,0,1,1,1,5,0,5,5,0,no
3,0,0,0,0,0,1,1,3,0,3,3,1,no
0,0,0,0,1,0,1,1,0,0,0,0,0,no
0,0,0,0,1,0,1,1,0,0,0,0,0,no
0,0,0,0,1,0,1,1,0,0,0,0,0,no
0,0,0,0,1,0,1,1,0,0,0,0,0,no
0,2,0,0,1,0,1,1,0,0,0,0,0,no
0,3,0,0,1,0,1,1,0,0,0,0,0,no
0,0,0,0,1,0,1,1,0,0,0,0,1,no
0,8,0,0,1,0,1,1,0,0,0,0,1,no
0,0,0,0,1,0,1,1,0,0,0,0,1,no
0,5,0,0,1,0,1,1,0,0,0,0,0,no
17,3,2,1,0,1,1,1,17,0,17,17,0,no
4,2,0,0,0,1,1,1,4,0,4,4,0,no
3,1,0,0,0,0,2,1,13,10,13,11.5,0,no
8,2,0,0,0,0,1,1,8,0,8,8,0,no
3,2,0,0,0,0,1,1,3,0,3,3,0,no
3,1,0,0,0,0,1,1,3,0,3,3,0,no
7,1,1,1,0,1,1,1,7,0,7,7,0,no
7,3,1,1,0,1,1,1,7,0,7,7,0,no
3,3,0,0,0,0,2,2,4,1,3,2.5,0,no
3,1,0,0,0,0,1,1,3,0,3,3,0,no
17,4,4,1,0,2,2,2,17,0,14,8.5,1,no
5,0,1,1,0,1,2,2,6,1,6,3.5,1,no
3,1,0,0,0,0,3,3,7,4,6,3.666667,1,no
5,0,1,1,0,1,2,1,5,0,3,2.5,1,no
4,8,0,0,0,1,2,1,5,1,4,3,1,no
5,0,1,1,0,1,2,2,5,0,3,2.5,0,no
3,5,0,0,0,0,4,2,10,7,8,4.25,1,no
5,0,1,1,0,1,2,2,6,1,5,3.5,1,no
2,2,0,0,1,0,1,1,2,0,2,2,0,no
2,2,0,0,1,0,1,1,2,0,2,2,0,no
19,8,2,2,0,0,1,1,19,0,19,19,1,no
9,0,0,1,0,0,1,1,9,0,9,9,0,no
3,0,0,0,0,0,1,1,3,0,3,3,0,no
8,0,0,1,0,0,3,2,15,7,10,7.333333,0,no
17,0,2,1,1,0,2,1,17,0,15,8.5,1,no
3,0,0,0,0,0,1,1,3,0,3,3,0,no
3,0,0,0,0,0,1,1,3,0,3,3,0,no
3,0,0,0,0,0,1,1,3,0,3,3,0,no
3,0,0,0,0,0,1,1,3,0,3,3,0,no
8,0,0,1,0,0,2,2,8,0,5,4,0,no
22,1,4,1,1,0,2,1,23,1,22,12,0,no
16,2,2,1,0,1,6,2,19,3,14,3.666667,0,no
9,0,2,1,1,0,2,2,10,1,9,5.5,1,no
20,0,2,2,3,2,6,3,22,2,9,4,1,no
3,0,0,0,0,0,3,3,5,2,3,2.333333,1,no
6,2,1,1,0,0,2,2,7,1,6,4,0,no
3,2,0,0,0,0,2,2,3,0,2,1.5,0,no
15,0,2,1,0,1,4,2,16,1,12,4.25,1,no
3,1,0,0,0,0,1,1,3,0,3,3,0,no
30,1,3,2,0,1,3,1,30,0,12,10,0,no
10,0,0,0,0,1,2,2,10,0,8,5,1,no
3,0,0,0,0,0,1,1,3,0,3,3,0,no
3,0,0,0,0,0,1,1,3,0,3,3,0,no
2,0,0,0,0,0,1,1,2,0,2,2,0,no
2,0,0,0,0,0,1,1,2,0,2,2,0,no
3,0,0,0,0,0,1,1,3,0,3,3,0,no
0,0,0,0,1,0,1,1,0,0,0,0,0,no
5,3,0,0,0,0,1,1,5,0,5,5,0,no
22,0,2,1,0,3,1,1,22,0,22,22,0,no
4,1,0,0,0,0,1,1,4,0,4,4,0,no
13,1,2,1,0,0,1,1,13,0,13,13,0,no
5,1,1,1,0,0,1,1,5,0,5,5,0,no
6,0,0,0,1,0,1,1,6,0,6,6,0,no
6,1,1,1,0,0,2,1,7,1,7,4,1,no
11,0,2,2,0,2,1,1,11,0,11,11,0,no
20,0,4,3,0,1,1,1,20,0,20,20,0,no
3,0,0,0,0,0,1,1,3,0,3,3,0,no
3,0,0,0,0,0,1,1,3,0,3,3,0,no
5,0,0,0,0,0,1,1,5,0,5,5,0,no
4,2,2,0,1,1,1,1,4,0,4,4,0,no
2,0,0,0,0,0,1,1,2,0,2,2,0,no
3,0,0,0,0,0,1,1,3,0,3,3,0,no
3,0,0,0,0,0,1,1,3,0,3,3,0,no
6,5,0,0,0,0,1,1,6,0,6,6,1,no
7,0,1,1,0,1,4,3,12,5,8,4.25,1,no
3,0,0,0,0,0,1,1,3,0,3,3,0,no
4,2,0,0,0,0,1,1,4,0,4,4,0,no
18,2,1,1,0,0,2,2,18,0,16,9,0,no
0,2,0,0,0,0,1,1,0,0,0,0,0,no
4,2,0,0,0,0,2,2,4,0,3,2,0,no
8,2,1,1,0,0,2,2,8,0,7,4,0,no
0,1,0,0,1,0,1,1,0,0,0,0,0,no
7,5,0,0,0,0,1,1,7,0,7,7,0,no
34,2,1,1,0,4,1,1,34,0,34,34,0,no
4,2,0,0,0,0,1,1,4,0,4,4,0,no
15,2,0,0,0,0,1,1,15,0,15,15,0,no
4,2,0,0,0,0,1,1,4,0,4,4,0,no
5,2,0,0,0,0,1,1,5,0,5,5,0,no
4,3,0,0,0,0,1,1,4,0,4,4,0,no
9,2,1,1,0,1,2,2,9,0,8,4.5,0,no
3,2,0,0,0,0,2,2,3,0,2,1.5,0,no
3,2,0,0,1,0,2,2,3,0,2,1.5,0,no
0,2,0,0,2,0,1,1,0,0,0,0,0,no
3,1,0,0,0,0,1,1,3,0,3,3,0,no
3,0,0,0,0,0,1,1,3,0,3,3,0,no
3,0,0,0,0,0,2,1,4,1,3,2.5,0,no
3,0,0,0,0,0,1,1,3,0,3,3,0,no
0,0,0,0,1,0,1,1,0,0,0,0,0,no
5,3,0,0,0,0,2,2,5,0,4,2.5,0,no
8,2,1,1,0,2,1,1,8,0,8,8,0,no
22,2,1,1,0,3,4,3,24,2,18,6.5,1,no
4,2,0,0,0,0,2,2,4,0,3,2,0,no
4,2,0,0,0,0,1,1,4,0,4,4,0,no
8,6,0,0,0,0,1,1,8,0,8,8,0,no
90,2,8,2,4,20,10,3,113,23,42,13.6,1,no
5,2,0,0,1,0,3,2,5,0,3,1.666667,0,no
59,2,6,2,2,14,7,1,81,22,46,14.714286,1,no
2,2,0,0,0,0,1,1,2,0,2,2,1,no
7,2,0,0,1,2,1,1,7,0,7,7,1,no
5,0,0,0,0,0,3,2,6,1,4,2.333333,0,no
5,1,1,1,0,0,1,1,5,0,5,5,0,no
15,1,3,3,1,3,3,2,15,0,9,5,0,no
3,0,0,0,0,0,1,1,3,0,3,3,0,no
3,0,0,0,0,0,1,1,3,0,3,3,0,no
42,3,9,5,3,5,2,1,42,0,27,21,0,no
15,2,4,3,2,1,2,1,15,0,10,7.5,0,no
3,1,0,0,0,0,1,1,3,0,3,3,0,no
7,1,1,1,0,0,1,1,7,0,7,7,0,no
0,1,0,0,1,0,1,1,0,0,0,0,0,no
7,5,0,0,0,0,1,1,7,0,7,7,0,no
34,2,1,1,0,4,4,3,35,1,20,9,1,no
4,2,0,0,0,0,2,2,4,0,3,2,0,no
15,2,0,0,0,0,4,3,16,1,10,4.25,1,no
4,2,0,0,0,0,1,1,4,0,4,4,0,no
5,2,0,0,0,0,1,1,5,0,5,5,0,no
0,1,0,0,1,0,1,1,0,0,0,0,0,no
0,0,0,0,1,0,1,1,0,0,0,0,0,no
3,0,0,0,0,0,1,1,3,0,3,3,0,no
3,0,0,0,0,0,1,1,3,0,3,3,0,no
3,1,0,0,0,0,1,1,3,0,3,3,0,no
4,2,0,0,0,1,1,1,4,0,4,4,1,no
7,1,1,1,1,1,1,1,7,0,7,7,0,no
3,2,0,0,0,0,1,1,3,0,3,3,0,no
3,0,0,0,0,0,1,1,3,0,3,3,0,no
3,0,0,0,0,0,1,1,3,0,3,3,0,no
21,2,3,1,1,5,2,2,22,1,21,11.5,1,no
5,2,0,0,0,2,2,2,6,1,5,3.5,1,no
3,0,0,0,0,0,1,1,3,0,3,3,0,no
22,3,4,2,2,4,1,1,22,0,22,22,1,no
0,2,0,0,0,0,1,1,0,0,0,0,1,no
0,0,0,0,0,0,1,1,0,0,0,0,0,no
0,0,0,0,0,0,1,1,0,0,0,0,0,no
0,3,0,0,0,0,1,1,0,0,0,0,0,no
35,2,7,3,2,5,2,1,53,18,53,35.5,1,no
0,0,0,0,0,0,1,1,0,0,0,0,0,no
0,0,0,0,0,0,1,1,0,0,0,0,0,no
0,0,0,0,0,0,1,1,0,0,0,0,0,no
0,0,0,0,0,0,1,1,0,0,0,0,0,no
18,2,2,1,0,1,1,1,18,0,18,18,0,no
3,0,0,0,0,0,1,1,3,0,3,3,0,no
46,0,5,2,0,5,1,1,46,0,46,46,0,no
29,3,6,2,0,0,1,1,29,0,29,29,0,no
11,4,2,2,0,1,1,1,11,0,11,11,0,no
4,5,0,0,1,0,1,1,4,0,4,4,0,no
3,0,0,0,0,0,1,1,3,0,3,3,0,no
3,0,0,0,0,0,1,1,3,0,3,3,0,no
3,0,0,0,0,0,1,1,3,0,3,3,0,no
19,0,4,1,0,0,1,1,19,0,19,19,0,no
14,0,3,2,0,0,1,1,14,0,14,14,1,no
4,0,0,0,0,1,1,1,4,0,4,4,1,no
3,0,0,0,0,0,1,1,3,0,3,3,1,no
5,3,0,0,0,1,1,1,5,0,5,5,0,no
4,2,0,0,0,0,1,1,4,0,4,4,0,no
2,0,0,0,0,0,1,1,2,0,2,2,0,no
20,5,3,2,0,2,1,1,20,0,20,20,0,no
21,5,3,3,1,1,1,1,21,0,21,21,0,no
3,2,0,0,0,0,1,1,3,0,3,3,0,no
3,2,0,0,0,0,1,1,3,0,3,3,0,no
3,0,0,0,0,0,1,1,3,0,3,3,0,no
35,4,5,2,0,6,1,1,35,0,35,35,0,no
15,3,1,1,0,3,1,1,15,0,15,15,0,no
40,6,5,2,0,9,1,1,40,0,40,40,0,no
3,6,0,0,0,0,1,1,3,0,3,3,0,no
10,1,2,1,0,1,2,2,11,1,10,6,1,no
23,6,4,3,0,2,1,1,23,0,23,23,0,no
18,1,2,1,0,7,1,1,18,0,18,18,0,no
29,3,5,2,0,5,1,1,29,0,29,29,0,no
15,3,3,3,1,0,1,1,15,0,15,15,0,no
13,3,3,2,0,0,1,1,16,0,16,16,0,no
16,3,4,3,0,0,1,1,16,0,16,16,0,no
8,3,1,1,0,1,1,1,8,0,8,8,0,no
30,3,4,2,0,8,1,1,30,0,30,30,0,no
3,1,0,0,0,0,1,1,3,0,3,3,0,no
2,0,0,0,0,0,1,1,2,0,2,2,0,no
21,4,3,3,1,0,1,1,21,0,21,21,0,no
26,3,4,2,1,3,2,2,27,1,26,14,1,no
25,5,4,4,0,1,2,2,26,1,25,13.5,1,no
21,3,4,2,1,3,2,2,22,1,21,11.5,1,no
16,3,3,3,1,0,1,1,16,0,16,16,0,no
18,3,4,4,0,0,1,1,18,0,18,18,0,no
3,1,0,0,0,0,1,1,3,0,3,3,0,no
2,0,0,0,0,0,1,1,2,0,2,2,0,no
21,4,3,3,1,0,1,1,21,0,21,21,0,no
21,5,2,1,0,7,1,1,21,0,21,21,0,no
19,3,3,2,0,1,1,1,19,0,19,19,0,no
24,5,4,4,0,1,2,2,25,1,24,13,1,no
14,3,3,2,0,1,1,1,14,0,14,14,0,no
16,3,3,3,1,0,1,1,16,0,16,16,0,no
17,3,4,4,0,0,1,1,17,0,17,17,0,no
5,0,1,1,0,0,1,1,5,0,5,5,0,no
6,2,0,0,1,0,1,1,6,0,6,6,0,no
3,0,0,0,0,0,1,1,3,0,3,3,0,no
3,0,0,0,0,0,1,1,3,0,3,3,0,no
0,5,0,0,1,0,1,1,0,0,0,0,0,no
0,5,0,0,1,0,1,1,0,0,0,0,0,no
0,0,0,0,1,0,1,1,0,0,0,0,0,no
0,4,0,0,1,0,1,1,0,0,0,0,0,no
0,3,0,0,1,0,1,1,0,0,0,0,0,no
0,6,0,0,1,0,1,1,0,0,0,0,0,no
0,6,0,0,1,0,1,1,0,0,0,0,0,no
0,4,0,0,1,0,1,1,0,0,0,0,0,no
0,3,0,0,1,0,1,1,0,0,0,0,0,no
0,5,0,0,1,0,1,1,0,0,0,0,0,no
0,4,0,0,1,0,1,1,0,0,0,0,0,no
0,3,0,0,1,0,1,1,0,0,0,0,0,no
0,5,0,0,1,0,1,1,0,0,0,0,0,no
11,2,3,1,1,0,1,1,11,0,11,11,1,no
3,0,0,0,0,0,1,1,3,0,3,3,0,no
26,0,2,1,0,3,1,1,26,0,26,26,0,no
8,3,1,1,0,0,1,1,8,0,8,8,0,no
3,0,0,0,0,0,1,1,3,0,3,3,0,no
3,0,0,0,0,0,1,1,3,0,3,3,0,no
3,0,0,0,0,0,1,1,3,0,3,3,0,no
2,0,0,0,0,0,1,1,2,0,2,2,0,no
3,0,0,0,0,0,1,1,3,0,3,3,1,no
4,0,0,0,0,1,1,1,4,0,4,4,1,no
3,0,0,0,0,0,1,1,3,0,3,3,1,no
4,2,0,0,0,0,1,1,4,0,4,4,0,no
2,0,0,0,0,0,1,1,2,0,2,2,0,no
19,5,3,3,0,1,2,1,20,1,19,10.5,0,no
34,5,7,4,0,2,2,2,35,1,34,18,1,no
3,0,0,0,0,0,1,1,3,0,3,3,0,no
29,4,4,1,0,3,2,1,30,1,29,15.5,0,no
61,3,10,2,2,11,3,1,63,2,61,21.666667,0,no
34,6,7,4,0,2,2,2,35,1,34,18,1,no
3,2,0,0,0,0,1,1,3,0,3,3,0,no
3,2,0,0,0,0,1,1,3,0,3,3,0,no
3,6,0,0,0,0,1,1,3,0,3,3,0,no
55,4,10,2,2,10,3,1,57,2,55,19.666667,0,no
4,1,1,1,1,0,1,1,4,0,4,4,0,no
27,5,5,1,0,3,3,1,29,2,27,10.333333,0,no
24,5,4,1,0,3,3,1,26,2,24,9.333333,0,no
17,4,4,4,0,1,4,2,19,2,14,5.25,1,no
14,4,3,3,0,1,3,1,16,2,14,6,0,no
17,3,4,4,0,1,3,2,18,1,14,6.333333,1,no
4,2,0,0,0,0,1,1,4,0,4,4,0,no
2,0,0,0,0,0,1,1,2,0,2,2,0,no
19,4,2,2,0,2,2,2,20,1,19,10.5,1,no
32,4,6,3,0,2,3,2,34,2,32,12,1,no
3,1,0,0,0,0,1,1,3,0,3,3,0,no
26,3,3,1,2,4,2,2,27,1,26,14,1,no
30,5,5,3,0,2,4,3,33,3,30,9,1,no
20,5,3,1,2,3,2,2,21,1,20,11,1,no
16,4,3,3,0,1,2,2,17,1,16,9,1,no
13,4,2,2,0,1,1,1,13,0,13,13,0,no
18,3,4,3,0,1,2,2,19,1,18,10,1,no
4,2,0,0,0,0,1,1,4,0,4,4,0,no
2,0,0,0,0,0,1,1,2,0,2,2,0,no
20,4,2,1,1,3,1,1,20,0,20,20,0,no
29,4,5,3,0,3,3,2,31,2,29,11,1,no
3,1,0,0,0,0,1,1,3,0,3,3,0,no
12,5,1,1,0,2,1,1,12,0,12,12,0,no
18,3,2,1,0,2,1,1,18,0,18,18,0,no
32,5,5,3,0,4,3,2,34,2,32,12,1,no
12,5,2,1,0,1,1,1,12,0,12,12,0,no
16,4,3,3,0,1,2,2,17,1,16,9,1,no
12,4,2,1,0,1,1,1,12,0,12,12,0,no
14,3,3,3,0,1,2,2,15,1,14,8,1,no
3,1,0,0,0,0,2,2,4,1,3,2.5,1,no
3,2,0,0,0,0,1,1,3,0,3,3,1,no
13,3,0,0,1,0,1,1,13,0,13,13,1,no
5,3,0,0,0,0,2,2,6,1,5,3.5,0,no
3,0,0,0,0,0,1,1,3,0,3,3,1,no
13,3,2,0,1,4,1,1,13,0,13,13,0,no
10,5,0,0,0,1,2,1,10,0,9,5,0,no
6,0,1,1,0,0,1,1,6,0,6,6,0,no
21,1,3,2,0,3,3,2,22,1,19,7.666667,0,no
3,2,0,0,0,0,2,2,4,1,3,2.5,1,no
7,3,1,1,0,0,1,1,7,0,7,7,0,no
21,0,4,4,0,1,2,2,21,0,14,10.5,0,no
17,0,3,2,1,1,3,3,18,1,9,6.333333,1,no
35,1,7,2,2,8,3,3,36,1,22,12.333333,1,no
20,1,3,2,0,1,1,1,20,0,20,20,0,no
29,0,6,2,2,0,5,2,35,6,24,8.2,1,no
40,0,3,2,0,5,7,2,42,2,36,6.285714,1,no
21,0,5,2,1,0,1,1,21,0,21,21,0,no
30,0,2,2,0,3,9,3,32,2,24,3.777778,1,no
3,2,0,0,0,0,1,1,3,0,3,3,0,no
5,1,1,1,0,0,2,2,5,0,3,2.5,1,no
3,1,0,0,0,0,1,1,3,0,3,3,1,no
3,0,0,0,0,0,1,1,3,0,3,3,0,no
3,0,0,0,0,0,2,1,4,1,3,2.5,1,no
3,0,0,0,0,0,1,1,3,0,3,3,0,no
3,0,0,0,0,0,1,1,3,0,3,3,0,no
3,0,0,0,0,0,1,1,3,0,3,3,0,no
3,0,0,0,0,0,1,1,3,0,3,3,0,no
3,0,0,0,0,0,1,1,3,0,3,3,0,no
3,0,0,0,0,0,1,1,3,0,3,3,0,no
3,0,0,0,0,0,1,1,3,0,3,3,0,no
0,0,0,0,1,0,1,1,0,0,0,0,0,no
0,0,0,0,1,0,1,1,0,0,0,0,0,no
0,0,0,0,1,0,1,1,0,0,0,0,0,no
0,0,0,0,1,0,1,1,0,0,0,0,0,no
0,0,0,0,1,0,1,1,0,0,0,0,0,no
0,0,0,0,1,0,1,1,0,0,0,0,0,no
0,0,0,0,1,0,1,1,0,0,0,0,0,no
5,3,0,0,0,0,1,1,5,0,5,5,0,no
12,0,1,1,0,1,1,1,12,0,12,12,0,no
6,0,1,1,0,1,1,1,6,0,6,6,0,no
3,0,0,0,0,0,1,1,3,0,3,3,0,no
3,0,0,0,0,0,1,1,3,0,3,3,0,no
3,0,0,0,0,0,1,1,3,0,3,3,0,no
3,0,0,0,0,0,1,1,3,0,3,3,0,no
3,1,0,0,0,0,1,1,3,0,3,3,0,no
3,0,0,0,0,0,1,1,3,0,3,3,0,no
3,0,0,0,0,0,1,1,3,0,3,3,0,no
3,0,0,0,0,0,1,1,3,0,3,3,0,no
8,6,1,0,0,0,1,1,8,0,8,8,0,no
3,0,0,0,0,0,1,1,3,0,3,3,0,no
3,0,0,0,0,0,1,1,3,0,3,3,0,no
3,0,0,0,0,0,1,1,3,0,3,3,0,no
3,0,0,0,0,0,1,1,3,0,3,3,0,no
3,0,0,0,0,0,1,1,3,0,3,3,0,no
3,0,0,0,0,0,1,1,3,0,3,3,0,no
2,0,0,0,1,0,1,1,2,0,2,2,0,no
3,0,0,0,0,0,1,1,3,0,3,3,0,no
11,0,3,2,0,3,1,1,11,0,11,11,0,no
25,1,6,3,0,1,2,2,25,0,21,12.5,1,no
6,4,0,0,0,0,1,1,6,0,6,6,0,no
14,2,2,2,0,0,3,2,17,3,16,6.666667,1,no
5,2,0,0,0,1,2,2,6,1,5,3.5,0,no
5,2,1,1,0,0,1,1,5,0,5,5,0,no
10,2,1,1,0,2,2,2,12,2,12,7,0,no
16,2,2,1,0,4,2,2,16,0,15,8,0,no
6,3,0,0,1,2,2,2,8,2,8,5,0,no
8,1,1,1,0,0,2,2,10,2,10,6,0,no
9,5,0,0,0,0,2,1,9,0,8,4.5,0,no
3,3,0,0,0,0,1,1,3,0,3,3,0,no
4,3,0,0,0,1,1,1,4,0,4,4,1,no
3,3,0,0,0,0,1,1,3,0,3,3,0,no
3,1,0,0,0,0,1,1,3,0,3,3,0,no
2,1,0,0,0,0,1,1,2,0,2,2,0,no
7,1,1,1,0,1,1,1,7,0,7,7,0,no
3,2,0,0,0,0,2,2,18,15,18,16.5,0,no
39,3,3,1,4,3,1,1,39,0,39,39,1,no
2,2,0,0,0,0,1,1,2,0,2,2,0,no
81,1,12,3,4,12,2,1,82,1,81,41.5,1,no
7,1,1,1,0,1,1,1,7,0,7,7,0,no
8,1,1,1,0,1,1,1,8,0,8,8,0,no
3,3,0,0,0,0,2,2,4,1,3,2.5,0,no
3,1,0,0,0,0,1,1,3,0,3,3,0,no
41,7,5,1,2,5,3,2,42,1,40,14.333333,1,no
3,1,0,0,0,0,1,1,3,0,3,3,0,no
27,3,4,2,4,2,1,1,27,0,27,27,0,no
3,1,0,0,0,0,1,1,3,0,3,3,0,no
3,4,0,0,0,0,1,1,3,0,3,3,1,no
3,1,0,0,0,0,1,1,3,0,3,3,0,no
3,2,0,0,0,0,1,1,3,0,3,3,0,no
7,0,1,1,0,0,1,1,7,0,7,7,0,no
3,2,0,0,1,0,1,1,3,0,3,3,0,no
3,2,0,0,1,0,1,1,3,0,3,3,0,no
3,2,0,0,1,0,1,1,3,0,3,3,1,no
2,2,0,0,0,0,1,1,2,0,2,2,1,no
18,2,1,1,2,1,1,1,18,0,18,18,1,no
3,2,0,0,1,0,1,1,3,0,3,3,1,no
2,2,0,0,0,0,1,1,2,0,2,2,1,no
40,4,5,2,3,4,2,1,41,1,40,21,1,no
4,2,0,0,1,0,1,1,4,0,4,4,0,no
11,2,1,1,1,2,1,1,11,0,11,11,0,no
2,3,0,0,2,0,1,1,2,0,2,2,0,no
35,3,5,1,2,4,2,1,35,0,34,17.5,1,no
3,2,0,0,0,0,1,1,3,0,3,3,0,no
5,2,0,0,0,0,1,1,5,0,5,5,0,no
3,3,0,0,0,0,1,1,3,0,3,3,0,no
37,2,6,2,3,7,1,1,37,0,37,37,1,no
13,2,2,2,0,2,3,1,24,11,23,11.666667,1,no
33,3,6,3,2,5,1,1,33,0,33,33,1,no
54,4,6,2,4,9,2,1,54,0,50,27,1,no
20,0,2,1,0,0,3,2,34,14,33,16,1,no
3,2,0,0,0,0,1,1,3,0,3,3,0,no
7,2,1,1,0,0,2,1,8,1,7,4.5,1,no
26,3,5,2,3,5,4,2,50,1,40,12.75,1,no
49,3,6,2,4,9,4,2,50,1,40,12.75,1,no
31,4,4,2,2,7,4,2,32,1,22,8.25,1,no
3,3,0,0,0,0,1,1,3,0,3,3,0,no
24,1,2,1,2,5,2,1,24,0,23,12,1,no
9,0,1,1,1,1,1,1,9,0,9,9,0,no
17,3,2,1,2,3,2,1,17,0,16,8.5,1,no
4,2,0,0,0,0,1,1,4,0,4,4,0,no
21,0,4,2,0,5,2,1,26,5,26,15.5,1,no
3,1,0,0,0,0,1,1,3,0,3,3,1,no
4,2,0,0,0,0,1,1,4,0,4,4,1,no
4,0,0,0,0,0,1,1,4,0,4,4,1,no
4,1,0,0,0,0,1,1,4,0,4,4,0,no
3,0,0,0,0,0,5,4,53,50,49,20.6,1,no
3,1,0,0,0,0,3,2,5,2,4,2.333333,1,no
7,4,0,0,0,0,1,1,7,0,7,7,1,no
73,3,11,2,6,7,7,3,78,5,66,11.857143,1,no
8,0,2,1,0,0,2,2,9,1,8,5,1,no
13,1,2,2,0,2,2,2,14,1,13,7.5,1,no
11,3,1,1,2,1,1,1,11,0,11,11,0,no
40,4,6,2,3,4,6,3,45,5,39,8.333333,1,no
3,1,0,0,0,0,1,1,3,0,3,3,0,no
14,0,4,2,0,2,1,1,14,0,14,14,0,no
4,2,0,0,0,0,1,1,4,0,4,4,0,no
6,0,1,1,0,1,1,1,6,0,6,6,0,no
4,4,0,0,0,0,1,1,4,0,4,4,1,no
45,0,6,3,0,10,3,1,46,1,36,15.666667,1,no
3,2,0,0,0,0,1,1,3,0,3,3,0,no
7,2,1,1,0,1,1,1,7,0,7,7,0,no
4,2,0,0,0,0,1,1,4,0,4,4,0,no
17,1,7,2,6,1,1,1,17,0,17,17,0,no
3,0,0,0,0,0,1,1,3,0,3,3,0,no
3,0,0,0,0,0,1,1,3,0,3,3,0,no
7,0,1,0,0,2,1,1,7,0,7,7,0,no
3,0,0,0,0,0,1,1,3,0,3,3,0,no
2,0,0,0,2,0,1,1,2,0,2,2,0,no
7,2,1,1,0,0,1,1,7,0,7,7,0,no
3,0,0,0,0,0,1,1,3,0,3,3,0,no
6,0,1,1,0,0,1,1,6,0,6,6,0,no
3,0,0,0,0,0,1,1,3,0,3,3,0,no
3,2,0,0,0,0,1,1,3,0,3,3,0,no
7,1,2,2,0,1,2,2,7,0,6,3.5,0,no
13,2,3,2,1,1,3,3,15,2,14,5.666667,0,no
0,0,0,0,1,0,1,1,0,0,0,0,0,no
0,0,0,0,1,0,1,1,0,0,0,0,0,no
12,0,3,1,2,0,1,1,12,0,12,12,0,no
16,2,2,2,0,3,1,1,16,0,16,16,0,no
2,1,0,0,0,0,1,1,2,0,2,2,0,no
2,1,0,0,0,0,1,1,2,0,2,2,0,no
30,2,6,3,5,4,3,3,30,0,21,10,1,no
18,2,3,3,0,2,2,2,18,0,9,9,1,no
2,2,0,0,0,0,1,1,2,0,2,2,0,no
12,1,2,1,0,2,1,1,12,0,12,12,0,no
18,0,4,3,1,1,1,1,18,0,18,18,0,no
3,1,0,0,0,0,1,1,3,0,3,3,0,no
3,3,0,0,0,0,1,1,3,0,3,3,0,no
7,1,0,0,1,3,3,3,8,1,4,3,1,no
3,0,0,0,0,0,1,1,3,0,3,3,0,no
47,1,6,3,4,10,2,2,48,1,47,24.5,0,no
4,0,0,0,0,0,1,1,4,0,4,4,0,no
4,1,0,0,1,0,1,1,4,0,4,4,0,no
76,7,13,5,4,11,2,2,76,0,68,38,1,no
4,1,0,0,1,0,1,1,4,0,4,4,0,no
2,2,0,0,0,0,1,1,2,0,2,2,0,no
2,0,0,0,0,0,1,1,2,0,2,2,0,no
8,0,1,1,0,0,1,1,8,0,8,8,0,no
8,0,1,1,0,0,1,1,8,0,8,8,1,no
4,4,0,0,0,1,1,1,4,0,4,4,0,no
8,3,1,1,0,1,1,1,8,0,8,8,0,no
14,3,3,2,0,1,1,1,14,0,14,14,0,no
6,4,0,0,0,0,1,1,6,0,6,6,0,no
3,0,0,0,0,0,1,1,3,0,3,3,0,no
3,0,0,0,0,0,1,1,3,0,3,3,0,no
3,0,0,0,0,0,1,1,3,0,3,3,0,no
3,0,0,0,0,0,1,1,3,0,3,3,0,no
0,1,0,0,1,0,1,1,0,0,0,0,0,no
0,1,0,0,1,0,1,1,0,0,0,0,0,no
0,2,0,0,1,0,1,1,0,0,0,0,0,no
0,2,0,0,1,0,1,1,0,0,0,0,0,no
0,1,0,0,1,0,1,1,0,0,0,0,0,no
0,3,0,0,1,0,1,1,0,0,0,0,0,no
0,1,0,0,1,0,1,1,0,0,0,0,0,no
0,1,0,0,1,0,1,1,0,0,0,0,0,no
0,2,0,0,1,0,1,1,0,0,0,0,0,no
0,0,0,0,1,0,1,1,0,0,0,0,0,no
0,1,0,0,1,0,1,1,0,0,0,0,0,no
8,6,0,0,0,0,1,1,8,0,8,8,0,no
3,0,0,0,0,0,1,1,3,0,3,3,0,no
3,0,0,0,0,0,1,1,3,0,3,3,0,no
3,0,0,0,0,0,1,1,3,0,3,3,0,no
3,0,0,0,0,0,1,1,3,0,3,3,0,no
3,0,0,0,0,0,1,1,3,0,3,3,0,no
3,0,0,0,0,0,1,1,3,0,3,3,0,no
7,2,0,0,0,0,4,3,9,2,5,2.75,1,no
24,3,3,2,1,4,5,4,30,6,15,7.2,1,no
3,2,0,0,0,0,1,1,3,0,3,3,0,no
3,1,0,0,0,0,1,1,3,0,3,3,0,no
13,2,1,1,1,3,1,1,13,0,13,13,1,no
15,1,4,3,0,2,1,1,15,0,15,15,1,no
3,1,0,0,0,0,1,1,3,0,3,3,0,no
3,2,0,0,0,0,1,1,3,0,3,3,0,no
3,2,0,0,0,0,2,2,4,1,3,2.5,1,no
13,1,1,1,0,4,1,1,13,0,13,13,0,no
25,3,4,2,1,8,3,3,27,2,25,9.666667,1,no
17,2,2,1,1,0,2,1,17,0,15,8.5,1,no
3,1,0,0,0,0,1,1,3,0,3,3,0,no
3,3,0,0,0,0,1,1,3,0,3,3,0,no
4,1,0,0,0,1,1,1,4,0,4,4,0,no
9,1,1,1,0,0,2,1,10,1,9,5.5,1,no
4,1,0,0,0,0,1,1,4,0,4,4,1,no
24,4,4,1,0,4,3,2,29,5,17,11.333333,1,no
3,1,0,0,0,0,2,2,4,1,3,2.5,1,no
3,2,0,0,0,0,1,1,3,0,3,3,0,no
3,0,0,0,0,0,2,2,4,1,4,2.5,1,no
8,0,1,1,0,0,2,2,8,0,5,4,1,no
9,0,2,2,0,0,1,1,9,0,9,9,0,no
4,0,0,0,0,0,2,1,4,0,3,2,1,no
3,0,0,0,0,0,1,1,3,0,3,3,1,no
0,0,0,0,1,0,1,1,0,0,0,0,0,no
3,1,0,0,0,0,1,1,3,0,3,3,0,no
11,1,2,1,0,2,1,1,11,0,11,11,0,no
3,0,0,0,0,0,1,1,3,0,3,3,0,no
4,2,0,0,0,0,1,1,4,0,4,4,0,no
21,0,3,1,0,5,2,2,23,2,23,12.5,0,no
4,2,0,0,0,0,1,1,4,0,4,4,0,no
5,0,0,0,0,0,1,1,5,0,5,5,0,no
3,0,0,0,0,0,1,1,3,0,3,3,0,no
3,0,0,0,0,0,1,1,3,0,3,3,0,no
6,2,0,0,0,3,2,2,7,1,6,4,0,no
7,2,0,0,0,3,2,2,8,1,7,4.5,1,no
3,0,0,0,0,0,1,1,3,0,3,3,0,no
4,2,0,0,0,0,1,1,4,0,4,4,0,no
6,1,1,1,0,1,2,2,7,1,6,4,1,no
14,2,2,1,1,2,2,2,15,1,14,8,1,no
3,2,0,0,0,0,1,1,3,0,3,3,0,no
5,2,1,1,0,0,1,1,5,0,5,5,0,no
3,1,0,0,0,0,1,1,3,0,3,3,0,no
16,0,2,1,0,3,2,2,16,0,8,8,1,no
4,2,0,0,0,0,1,1,4,0,4,4,0,no
3,0,0,0,0,0,2,2,4,1,3,2.5,1,no
3,0,0,0,0,0,1,1,3,0,3,3,0,no
3,1,0,0,0,0,1,1,3,0,3,3,0,no
3,0,0,0,0,0,1,1,3,0,3,3,0,no
3,0,0,0,0,0,1,1,3,0,3,3,0,no
3,0,0,0,0,0,1,1,3,0,3,3,0,no
3,0,0,0,0,0,2,1,4,1,3,2.5,1,no
3,0,0,0,0,0,2,1,4,1,3,2.5,1,no
3,0,0,0,0,0,1,1,3,0,3,3,0,no
0,0,0,0,1,0,1,1,0,0,0,0,0,no
0,0,0,0,1,0,1,1,0,0,0,0,0,no
0,0,0,0,1,0,1,1,0,0,0,0,0,no
0,0,0,0,1,0,1,1,0,0,0,0,0,no
0,2,0,0,1,0,1,1,0,0,0,0,0,no
0,2,0,0,1,0,1,1,0,0,0,0,0,no
0,2,0,0,1,0,1,1,0,0,0,0,0,no
4,2,0,0,0,0,1,1,4,0,4,4,0,no
7,1,1,1,1,1,1,1,7,0,7,7,0,no
3,0,0,0,0,0,1,1,3,0,3,3,0,no
3,0,0,0,0,0,1,1,3,0,3,3,0,no
3,0,0,0,0,0,1,1,3,0,3,3,0,no
6,4,0,0,0,0,1,1,6,0,6,6,0,no
3,0,0,0,0,0,1,1,3,0,3,3,0,no
3,0,0,0,0,0,1,1,3,0,3,3,0,no
3,0,0,0,0,0,1,1,3,0,3,3,0,no
3,0,0,0,0,0,1,1,3,0,3,3,0,no
3,1,0,0,0,0,1,1,3,0,3,3,0,no
3,2,0,0,0,0,1,1,3,0,3,3,0,no
3,2,0,0,0,0,2,2,10,7,10,8.5,0,no
10,1,2,1,0,2,1,1,10,0,10,10,0,no
9,3,2,1,0,1,1,1,9,0,9,9,0,no
3,2,0,0,0,0,1,1,3,0,3,3,0,no
10,2,2,2,0,3,1,1,10,0,10,10,0,no
16,2,3,1,0,2,1,1,16,0,16,16,0,no
2,2,0,0,2,0,1,1,2,0,2,2,0,no
2,2,0,0,2,0,1,1,2,0,2,2,0,no
3,1,0,0,0,0,1,1,3,0,3,3,0,no
9,2,0,0,1,0,2,2,21,12,21,16.5,1,no
3,0,0,0,0,0,1,1,3,0,3,3,1,no
3,0,0,0,0,0,1,1,3,0,3,3,0,no
3,0,0,0,0,0,1,1,3,0,3,3,1,no
11,0,0,0,0,0,3,2,12,1,10,4.333333,1,no
14,0,0,0,0,4,2,2,14,0,13,7,0,no
22,1,4,2,2,4,2,2,23,1,22,12,1,no
5,0,0,0,0,0,2,2,6,1,5,3.5,0,no
15,0,0,0,0,2,2,2,15,0,14,7.5,1,no
8,0,0,0,0,1,2,2,8,0,7,4,0,no
3,2,0,0,0,0,1,1,3,0,3,3,0,no
4,2,0,0,0,0,1,1,4,0,4,4,0,no
19,2,1,1,0,2,1,1,19,0,19,19,0,no
3,2,0,0,0,0,1,1,3,0,3,3,0,no
4,2,0,0,0,0,1,1,4,0,4,4,0,no
3,0,0,0,0,0,1,1,3,0,3,3,0,no
3,0,0,0,0,0,1,1,3,0,3,3,0,no
3,1,0,0,0,0,1,1,3,0,3,3,0,no
12,2,2,1,0,1,1,1,12,0,12,12,0,no
3,1,0,0,0,0,1,1,3,0,3,3,0,no
17,2,1,1,0,1,1,1,17,0,17,17,0,no
3,2,0,0,0,0,1,1,3,0,3,3,0,no
3,2,0,0,0,0,1,1,3,0,3,3,0,no
4,2,0,0,0,0,1,1,4,0,4,4,0,no
41,2,5,1,0,6,4,3,43,2,38,11.25,1,no
13,5,1,1,0,2,1,1,13,0,13,13,0,no
6,1,1,1,0,0,1,1,6,0,6,6,0,no
4,2,0,0,0,0,1,1,4,0,4,4,0,no
20,2,3,1,0,2,2,2,21,1,20,11,1,no
4,2,0,0,0,0,1,1,4,0,4,4,0,no
3,1,0,0,0,0,1,1,3,0,3,3,0,no
25,2,2,1,0,3,2,2,25,0,24,12.5,1,no
3,2,0,0,0,0,1,1,3,0,3,3,0,no
9,2,1,1,0,0,1,1,9,0,9,9,0,no
4,2,0,0,0,0,1,1,4,0,4,4,0,no
21,2,1,1,0,2,1,1,21,0,21,21,0,no
3,2,0,0,0,0,1,1,3,0,3,3,0,no
3,2,0,0,0,0,1,1,3,0,3,3,0,no
4,1,0,0,0,0,1,1,4,0,4,4,0,no
4,2,0,0,0,0,1,1,4,0,4,4,0,no
5,3,0,0,0,0,1,1,5,0,5,5,1,no
20,1,1,1,1,2,2,2,20,0,12,10,1,no
3,0,0,0,0,0,1,1,3,0,3,3,1,no
3,0,0,0,0,0,1,1,3,0,3,3,1,no
3,1,0,0,0,0,1,1,3,0,3,3,0,no
4,5,0,0,0,1,2,2,4,0,3,2,0,no
3,5,0,0,0,0,1,1,3,0,3,3,0,no
3,4,0,0,0,0,1,1,3,0,3,3,0,no
4,3,0,0,0,1,2,2,4,0,3,2,0,no
3,3,0,0,0,0,1,1,3,0,3,3,0,no
3,2,0,0,0,0,1,1,3,0,3,3,0,no
12,5,2,1,1,1,3,3,13,1,8,4.666667,1,no
66,5,13,3,11,1,4,2,68,2,63,17.5,1,no
15,3,3,1,1,3,5,4,61,46,58,21.4,1,no
37,1,6,4,4,3,3,3,38,1,22,13,1,no
13,2,2,1,0,1,2,2,14,1,13,7.5,1,no
16,3,2,1,0,1,2,2,17,1,16,9,1,no
6,0,1,1,0,1,3,3,7,1,5,2.666667,1,no
8,0,1,1,0,1,3,3,21,1,14,7.333333,1,no
9,0,3,1,1,3,3,3,21,1,14,7.333333,1,no
20,0,4,4,1,3,3,3,21,1,14,7.333333,1,no
4,2,1,1,2,0,3,3,6,2,4,2.666667,1,no
4,2,1,1,1,0,3,3,6,2,4,2.666667,1,no
8,2,2,1,2,0,2,2,9,1,8,5,1,no
38,2,8,2,8,0,4,2,40,2,35,10.5,1,no
19,5,3,1,3,0,3,2,21,2,19,7.666667,1,no
5,2,1,1,2,0,2,2,6,1,5,3.5,1,no
5,2,1,1,1,0,2,1,6,1,5,3.5,0,no
49,0,7,3,0,8,3,2,57,8,56,21.666667,1,no
3,0,0,0,0,0,2,1,6,3,6,4.5,1,no
3,2,0,0,0,0,1,1,3,0,3,3,1,no
3,2,0,0,0,0,1,1,3,0,3,3,1,no
12,1,1,1,0,2,1,1,12,0,12,12,0,no
3,0,0,0,0,0,1,1,3,0,3,3,0,no
10,5,1,1,0,0,1,1,10,0,10,10,0,no
3,3,0,0,0,0,1,1,3,0,3,3,0,no
3,1,0,0,0,0,1,1,3,0,3,3,0,no
3,4,0,0,0,0,1,1,3,0,3,3,0,no
0,5,0,0,1,0,1,1,0,0,0,0,0,no
0,5,0,0,0,0,1,1,0,0,0,0,0,no
5,1,2,2,2,1,1,1,5,0,5,5,0,no
0,0,0,0,0,0,1,1,0,0,0,0,0,no
3,1,0,0,0,0,6,2,8,5,5,2.166667,1,no
6,4,1,1,0,2,1,1,6,0,6,6,0,no
3,1,1,1,1,1,1,1,3,0,3,3,0,no
0,4,0,0,1,0,1,1,0,0,0,0,0,no
0,3,0,0,1,0,1,1,0,0,0,0,0,no
0,6,0,0,0,0,1,1,0,0,0,0,0,no
3,5,0,0,0,0,1,1,3,0,3,3,0,no
3,5,0,0,0,0,1,1,3,0,3,3,0,no
22,0,2,2,0,3,3,2,23,1,19,8,1,no
3,4,0,0,0,0,1,1,3,0,3,3,0,no
20,1,4,2,0,3,2,1,21,1,20,11,0,no
0,6,0,0,0,0,1,1,0,0,0,0,0,no
35,5,2,1,0,2,2,1,35,0,25,17.5,0,no
35,5,2,1,0,2,2,1,35,0,25,17.5,0,no
16,3,3,3,0,4,1,1,16,0,16,16,0,no
17,2,1,1,0,0,1,1,17,0,17,17,0,no
17,2,1,1,0,0,1,1,17,0,17,17,0,no
4,2,0,0,0,0,1,1,4,0,4,4,0,no
4,2,0,0,0,0,1,1,4,0,4,4,0,no
3,2,0,0,0,0,1,1,3,0,3,3,0,no
3,2,0,0,0,0,1,1,3,0,3,3,0,no
4,2,0,0,0,0,1,1,4,0,4,4,0,no
4,2,0,0,0,0,1,1,4,0,4,4,0,no
3,2,0,0,0,0,1,1,3,0,3,3,1,no
3,2,0,0,0,0,1,1,3,0,3,3,1,no
3,3,0,0,0,0,1,1,3,0,3,3,0,no
34,0,2,1,2,1,4,3,38,4,36,10.5,1,no
3,2,0,0,0,0,1,1,3,0,3,3,0,no
21,2,1,1,2,1,3,3,25,4,24,9.666667,0,no
4,2,0,0,1,0,1,1,4,0,4,4,0,no
5,2,0,0,1,0,1,1,5,0,5,5,0,no
3,4,0,0,1,0,1,1,3,0,3,3,0,no
3,0,0,0,0,0,1,1,3,0,3,3,0,no
5,5,0,0,0,0,1,1,5,0,5,5,0,no
33,0,5,2,0,2,4,2,34,1,20,8.75,1,no
3,2,0,0,0,0,1,1,3,0,3,3,1,no
4,2,0,0,0,0,1,1,4,0,4,4,1,no
25,0,7,3,6,7,6,3,26,1,18,4.5,1,no
3,2,0,0,0,0,1,1,3,0,3,3,1,no
2,2,0,0,2,0,1,1,2,0,2,2,1,no
3,3,0,0,0,0,2,1,6,0,3,3,1,no
36,0,6,3,2,3,5,2,43,7,22,10,1,no
18,0,5,3,0,2,5,2,25,7,19,6.4,1,no
4,2,0,0,1,0,1,1,4,0,4,4,1,no
4,2,0,0,1,0,2,1,4,0,3,2,1,no
5,5,0,0,0,0,1,1,5,0,5,5,0,no
97,0,10,3,4,11,9,3,107,10,55,13,1,no
3,2,0,0,0,0,1,1,3,0,3,3,0,no
3,2,0,0,0,0,1,1,3,0,3,3,0,no
32,2,1,1,4,1,1,1,32,0,32,32,0,no
7,2,1,1,0,0,8,3,41,34,25,9.375,1,no
17,2,0,0,2,0,6,3,25,8,16,5.5,1,no
5,2,0,0,0,0,5,2,8,3,4,2.2,0,no
3,0,0,0,0,0,1,1,3,0,3,3,0,no
4,2,0,0,1,0,1,1,4,0,4,4,0,no
3,2,0,0,0,0,1,1,3,0,3,3,0,no
4,4,0,0,0,0,1,1,4,0,4,4,0,no
25,0,3,1,1,1,6,3,28,3,24,5.166667,1,no
3,2,0,0,0,0,1,1,3,0,3,3,0,no
7,2,1,1,1,0,1,1,7,0,7,7,0,no
8,1,1,1,0,1,1,1,8,0,8,8,0,no
4,3,0,0,0,0,1,1,4,0,4,4,0,no
7,1,1,1,1,0,2,2,8,1,7,4.5,0,no
2,0,0,0,0,0,1,1,2,0,2,2,0,no
3,5,0,0,0,0,1,1,3,0,3,3,0,no
3,5,0,0,0,0,1,1,3,0,3,3,0,no
3,5,0,0,0,0,1,1,3,0,3,3,0,no
3,0,0,0,0,0,1,1,3,0,3,3,0,no
9,1,2,1,1,1,3,2,9,0,4,3,1,no
13,4,2,1,0,2,2,2,13,0,8,6.5,1,no
8,3,1,1,0,1,2,2,9,1,8,5,1,no
3,6,0,0,0,0,1,1,3,0,3,3,0,no
3,6,0,0,0,0,1,1,3,0,3,3,0,no
3,2,0,0,0,0,1,1,3,0,3,3,0,no
13,3,1,1,0,1,2,1,13,0,12,6.5,1,no
3,0,0,0,0,0,1,1,3,0,3,3,0,no
3,0,0,0,0,0,1,1,3,0,3,3,1,no
3,0,0,0,0,0,1,1,3,0,3,3,0,no
3,0,0,0,0,0,1,1,3,0,3,3,0,no
3,0,0,0,0,0,1,1,3,0,3,3,0,no
12,2,2,1,0,1,2,2,12,0,8,6,1,no
8,0,1,1,0,1,1,1,8,0,8,8,1,no
3,1,0,0,0,0,1,1,3,0,3,3,1,no
3,1,0,0,0,0,1,1,3,0,3,3,0,no
4,0,0,0,0,1,2,1,4,0,3,2,0,no
52,1,13,5,0,7,4,2,53,1,40,13.5,1,no
4,6,0,0,0,0,1,1,4,0,4,4,0,no
3,5,0,0,0,0,1,1,3,0,3,3,0,no
3,5,0,0,0,0,1,1,3,0,3,3,0,no
3,0,0,0,0,0,1,1,3,0,3,3,0,no
16,4,1,1,0,0,1,1,16,0,16,16,0,no
17,3,1,1,0,3,3,1,17,0,13,5.666667,0,no
3,6,0,0,0,0,1,1,3,0,3,3,0,no
8,0,1,1,0,0,1,1,8,0,8,8,0,no
3,6,0,0,0,0,1,1,3,0,3,3,0,no
3,2,0,0,0,0,1,1,3,0,3,3,0,no
8,2,1,1,0,3,2,1,8,0,7,4,0,no
3,2,0,0,0,0,1,1,3,0,3,3,0,no
7,2,1,1,0,0,1,1,7,0,7,7,0,no
0,3,0,0,1,0,1,1,0,0,0,0,0,no
0,1,0,0,1,0,1,1,0,0,0,0,0,no
0,1,0,0,1,0,1,1,0,0,0,0,0,no
0,4,0,0,1,0,1,1,0,0,0,0,0,no
0,5,0,0,1,0,1,1,0,0,0,0,0,no
0,5,0,0,1,0,1,1,0,0,0,0,0,no
0,0,0,0,1,0,1,1,0,0,0,0,1,no
0,4,0,0,1,0,1,1,0,0,0,0,0,no
12,2,1,1,0,1,2,2,12,0,6,6,0,no
3,1,0,0,0,0,1,1,3,0,3,3,0,no
3,4,0,0,0,0,1,1,3,0,3,3,0,no
3,1,0,0,0,0,1,1,3,0,3,3,0,no
34,3,2,1,4,4,4,3,45,11,35,14,1,yes
0,3,0,0,0,0,1,1,0,0,0,0,0,no
0,4,0,0,0,0,1,1,0,0,0,0,0,no
5,3,1,1,1,1,2,2,6,1,5,3.5,0,no
3,3,0,0,0,0,1,1,3,0,3,3,0,no
15,2,1,1,2,0,1,1,15,0,15,15,0,no
2,0,0,0,0,0,1,1,2,0,2,2,1,no
3,2,0,0,1,0,1,1,3,0,3,3,0,yes
6,2,1,1,1,0,1,1,6,0,6,6,0,yes
12,2,0,0,4,1,2,2,12,0,8,6,1,yes
12,2,1,1,0,0,3,3,23,11,21,11.333333,0,no
4,2,0,0,2,0,1,1,4,0,4,4,1,no
3,2,0,0,2,0,1,1,3,0,3,3,1,no
3,0,0,0,0,0,3,3,14,11,12,8.333333,0,no
4,4,0,0,0,0,1,1,4,0,4,4,0,no
3,0,0,0,0,0,1,1,3,0,3,3,0,no
3,3,0,0,0,0,2,2,4,1,3,2.5,0,no
4,4,0,0,0,0,1,1,4,0,4,4,0,no
10,0,2,2,0,1,2,2,10,0,7,5,0,no
6,1,1,1,1,0,1,1,6,0,6,6,0,no
3,2,0,0,0,0,1,1,3,0,3,3,0,no
5,3,0,0,0,0,1,1,5,0,5,5,0,no
22,1,5,2,0,1,1,1,22,0,22,22,0,no
3,0,0,0,0,0,1,1,3,0,3,3,0,no
6,0,1,1,0,0,1,1,6,0,6,6,0,no
3,0,0,0,0,0,1,1,3,0,3,3,0,no
3,0,0,0,0,0,1,1,3,0,3,3,0,no
30,1,5,2,2,6,1,1,30,0,30,30,0,no
3,0,0,0,0,0,1,1,3,0,3,3,0,no
3,1,0,0,0,0,1,1,3,0,3,3,0,no
3,2,0,0,0,0,1,1,3,0,3,3,0,no
3,1,0,0,0,0,1,1,3,0,3,3,0,no
3,1,0,0,0,0,1,1,3,0,3,3,0,no
3,1,2,0,1,0,1,1,3,0,3,3,0,no
6,1,1,1,1,0,1,1,6,0,6,6,0,no
3,0,0,0,0,0,1,1,3,0,3,3,0,no
22,1,4,2,2,4,1,1,22,0,22,22,0,no
4,1,0,0,0,0,1,1,4,0,4,4,0,no
3,0,0,0,0,0,1,1,3,0,3,3,0,no
3,0,0,0,0,0,1,1,3,0,3,3,0,no
3,1,0,0,0,0,1,1,3,0,3,3,0,no
3,2,0,0,0,0,1,1,3,0,3,3,0,no
0,2,0,0,1,0,1,1,0,0,0,0,0,no
0,3,0,0,1,0,1,1,0,0,0,0,0,no
0,1,0,0,1,0,1,1,0,0,0,0,0,no
0,3,0,0,1,0,1,1,0,0,0,0,0,no
0,0,0,0,1,0,1,1,0,0,0,0,0,no
0,1,0,0,1,0,1,1,0,0,0,0,0,no
0,0,0,0,1,0,1,1,0,0,0,0,0,no
0,0,0,0,1,0,1,1,0,0,0,0,0,no
0,0,0,0,1,0,1,1,0,0,0,0,0,no
40,4,1,1,1,3,1,1,40,0,40,40,0,no
44,3,4,1,6,1,1,1,44,0,44,44,0,yes
12,4,2,1,0,1,2,1,12,0,11,6,0,no
8,0,1,1,1,0,1,1,8,0,8,8,0,no
4,2,0,0,0,0,1,1,4,0,4,4,0,no
4,2,0,0,1,0,1,1,4,0,4,4,0,no
4,2,0,0,0,0,1,1,4,0,4,4,0,no
34,2,4,1,5,1,1,1,34,0,34,34,0,no
9,2,1,1,2,0,1,1,9,0,9,9,0,no
3,2,0,0,0,0,1,1,3,0,3,3,0,no
3,0,0,0,0,0,1,1,3,0,3,3,0,no
3,0,0,0,0,0,1,1,3,0,3,3,0,no
3,0,0,0,0,0,1,1,3,0,3,3,0,no
5,3,0,0,0,0,1,1,5,0,5,5,0,no
18,1,1,1,1,0,1,1,18,0,18,18,0,no
18,1,1,1,0,0,1,1,18,0,18,18,0,no
5,1,0,0,0,0,1,1,5,0,5,5,0,no
49,0,5,2,0,2,2,1,50,1,49,25.5,1,no
19,2,1,1,0,0,1,1,19,0,19,19,0,no
4,2,0,0,1,0,1,1,4,0,4,4,0,no
8,2,1,1,0,0,1,1,8,0,8,8,0,no
3,2,0,0,0,0,1,1,3,0,3,3,0,no
40,2,5,2,0,2,2,1,41,1,40,21,1,no
3,2,0,0,0,0,1,1,3,0,3,3,0,no
7,2,1,1,0,0,1,1,7,0,7,7,0,no
8,2,1,1,0,0,1,1,8,0,8,8,0,no
8,2,1,1,0,0,1,1,8,0,8,8,0,no
3,2,0,0,0,0,1,1,4,0,4,4,0,no
4,2,0,0,0,0,1,1,4,0,4,4,0,no
0,1,0,0,1,0,1,1,0,0,0,0,0,no
0,4,0,0,1,0,1,1,0,0,0,0,0,no
0,1,0,0,1,0,1,1,0,0,0,0,0,no
0,3,0,0,1,0,1,1,0,0,0,0,0,no
0,0,0,0,1,0,1,1,0,0,0,0,1,no
0,3,0,0,1,0,1,1,0,0,0,0,0,no
0,1,0,0,1,0,1,1,0,0,0,0,0,no
3,2,0,0,0,0,1,1,3,0,3,3,0,no
3,3,0,0,0,0,1,1,3,0,3,3,0,no
8,4,1,1,0,1,2,2,8,0,7,4,0,no
2,0,0,0,0,0,1,1,2,0,2,2,1,no
8,3,0,0,0,0,1,1,8,0,8,8,0,no
13,2,1,1,0,1,1,1,13,0,13,13,0,no
43,3,7,3,4,9,3,3,46,3,45,16.333333,1,no
4,1,0,0,1,1,1,1,4,0,4,4,0,no
18,3,3,3,0,0,1,1,18,0,18,18,0,no
3,1,0,0,0,0,1,1,3,0,3,3,0,no
42,3,4,2,1,3,2,2,43,1,42,22,1,no
9,0,2,1,1,0,1,1,9,0,9,9,0,no
5,1,0,0,0,1,3,3,8,3,7,3.666667,1,no
8,4,1,1,0,1,1,1,8,0,8,8,0,yes
31,5,6,3,3,3,3,3,34,3,33,12.333333,1,no
13,4,3,3,0,0,1,1,13,0,13,13,0,no
36,4,4,2,1,2,1,1,36,0,36,36,0,no
10,4,1,1,0,0,1,1,10,0,10,10,0,no
9,3,1,1,1,1,1,1,9,0,9,9,0,no
5,4,1,1,0,0,1,1,5,0,5,5,0,no
25,1,8,4,0,0,1,1,25,0,25,25,0,yes
39,3,1,1,0,3,3,2,43,4,42,15.666667,1,no
3,1,0,0,0,0,1,1,3,0,3,3,0,no
42,3,5,2,3,5,3,3,43,1,34,14.666667,1,yes
12,4,2,1,0,1,2,2,12,0,11,6,0,no
8,0,1,1,0,0,2,1,10,2,10,6,1,no
4,2,0,0,0,0,1,1,4,0,4,4,0,no
4,2,0,0,0,0,1,1,4,0,4,4,0,no
3,0,0,0,0,0,1,1,3,0,3,3,0,no
3,0,0,0,0,0,1,1,3,0,3,3,0,no
3,0,0,0,0,0,1,1,3,0,3,3,0,no
37,5,5,2,3,5,3,3,38,1,29,13,1,no
8,3,1,1,0,1,1,1,8,0,8,8,0,no
7,4,0,0,0,0,1,1,7,0,7,7,0,no
18,0,1,1,1,0,2,2,18,0,14,9,0,no
22,0,4,2,0,1,3,3,24,2,22,8.666667,1,no
6,0,1,1,2,0,1,1,6,0,6,6,0,no
41,0,6,3,2,4,3,3,42,1,36,14.333333,1,no
4,2,0,0,1,0,1,1,4,0,4,4,0,no
8,2,1,1,0,0,1,1,8,0,8,8,0,no
36,5,6,3,2,4,3,3,37,1,31,12.666667,1,no
8,3,1,1,0,1,1,1,8,0,8,8,0,no
14,4,3,2,0,1,2,2,15,1,14,8,0,no
7,4,1,1,1,0,1,1,7,0,7,7,0,no
0,4,0,0,0,0,1,1,0,0,0,0,0,no
7,3,1,1,1,0,1,1,7,0,7,7,0,no
0,3,0,0,0,0,1,1,0,0,0,0,0,no
7,3,1,1,1,0,1,1,7,0,7,7,0,no
0,3,0,0,0,0,1,1,0,0,0,0,0,no
7,3,1,1,1,0,1,1,7,0,7,7,0,no
0,3,0,0,0,0,1,1,0,0,0,0,0,no
7,4,1,1,1,0,1,1,7,0,7,7,0,no
0,4,0,0,0,0,1,1,0,0,0,0,0,no
4,1,0,0,0,1,1,1,4,0,4,4,0,no
3,1,0,0,0,0,1,1,3,0,3,3,0,no
7,5,1,1,1,0,1,1,7,0,7,7,0,no
0,5,0,0,0,0,1,1,0,0,0,0,0,no
7,4,1,1,1,0,1,1,7,0,7,7,0,no
0,4,0,0,0,0,1,1,0,0,0,0,0,no
7,5,1,1,1,0,1,1,7,0,7,7,0,no
0,5,0,0,0,0,1,1,0,0,0,0,0,no
7,4,1,1,1,0,1,1,7,0,7,7,0,no
0,4,0,0,0,0,1,1,0,0,0,0,0,no
7,4,1,1,1,0,1,1,7,0,7,7,0,no
0,4,0,0,0,0,1,1,0,0,0,0,0,no
7,3,1,1,1,0,1,1,7,0,7,7,0,no
0,3,0,0,0,0,1,1,0,0,0,0,0,no
22,5,2,1,1,1,2,2,23,1,22,12,1,no
21,7,2,1,0,0,1,1,21,0,21,21,0,no
5,3,0,0,1,1,1,1,5,0,5,5,0,no
16,4,2,1,0,0,1,1,16,0,16,16,0,no
7,4,1,1,0,0,1,1,7,0,7,7,0,no
8,4,0,0,1,0,1,1,8,0,8,8,0,no
18,1,2,2,0,3,1,1,18,0,18,18,1,no
75,1,4,1,2,25,4,2,76,1,67,19.25,1,no
3,0,0,0,0,0,1,1,3,0,3,3,0,no
5,0,1,1,0,0,1,1,5,0,5,5,0,no
7,5,1,1,1,0,1,1,7,0,7,7,0,no
7,1,1,1,0,0,1,1,7,0,7,7,0,no
9,5,2,1,1,0,1,1,9,0,9,9,0,no
107,1,16,7,2,20,3,2,108,1,103,36.333333,1,no
62,3,11,5,2,14,1,1,62,0,62,62,0,no
4,1,0,0,0,1,1,1,4,0,4,4,0,no
13,2,2,2,1,2,1,1,13,0,13,13,0,no
42,1,9,6,1,7,2,1,43,1,42,22,0,no
3,0,0,0,1,0,2,1,4,1,3,2.5,0,no
5,1,1,1,0,0,1,1,5,0,5,5,0,no
17,7,2,2,1,1,1,1,17,0,17,17,0,no
11,4,1,1,0,2,2,1,11,0,9,5.5,0,no
6,0,1,1,0,1,1,1,6,0,6,6,0,no
3,0,0,0,0,0,1,1,3,0,3,3,0,no
3,0,0,0,0,0,1,1,3,0,3,3,0,no
3,0,0,0,0,0,1,1,3,0,3,3,0,no
137,1,15,3,9,37,6,3,140,3,104,23.833333,1,yes
11,2,1,1,0,5,1,1,11,0,11,11,0,no
64,0,10,3,5,10,3,2,64,0,60,21.333333,0,no
3,1,0,0,0,0,1,1,3,0,3,3,0,no
33,6,3,2,3,7,3,3,34,1,32,11.666667,1,no
10,0,2,2,2,0,2,1,11,1,10,6,0,no
4,0,0,0,1,0,1,1,4,0,4,4,0,no
5,1,1,1,0,0,1,1,5,0,5,5,0,no
5,1,1,1,0,0,1,1,5,0,5,5,0,no
5,1,1,1,0,0,1,1,5,0,5,5,0,no
4,2,0,0,0,0,2,2,5,1,4,3,0,no
15,3,1,1,0,1,1,1,15,0,15,15,0,no
3,0,0,0,0,0,1,1,3,0,3,3,0,no
19,1,4,1,2,3,2,2,20,1,19,10.5,1,no
11,2,1,1,0,2,2,2,12,1,11,6.5,1,no
14,2,1,1,1,2,2,2,15,1,14,8,1,no
127,1,23,5,7,41,5,3,135,8,93,28.6,1,no
4,0,0,0,1,0,1,1,4,0,4,4,0,no
7,4,0,0,0,0,1,1,7,0,7,7,0,no
6,4,1,1,0,0,1,1,6,0,6,6,0,no
29,0,5,3,2,5,1,1,29,0,29,29,0,no
6,3,0,0,0,0,1,1,6,0,6,6,0,no
22,0,2,2,2,5,1,1,22,0,22,22,0,no
6,3,0,0,0,0,1,1,6,0,6,6,0,no
22,0,2,2,1,5,1,1,22,0,22,22,0,no
26,1,1,1,1,2,24,3,123,97,85,9.166667,1,no
14,4,2,2,0,1,3,1,5,9,5,4.666667,0,no
5,2,0,0,0,2,3,1,9,4,8,4.333333,0,no
8,4,0,0,0,2,3,2,11,3,10,4.666667,0,no
26,1,4,2,0,5,4,3,27,1,21,7,1,no
71,1,16,4,3,11,5,2,72,1,51,14.6,1,no
33,1,6,4,1,3,1,1,33,0,33,33,0,no
15,1,4,3,2,2,1,1,15,0,15,15,0,no
19,2,1,1,0,4,2,1,19,0,13,9.5,1,no
46,3,11,4,2,6,2,2,46,0,37,23,0,no
11,1,2,1,0,2,2,1,11,0,8,5.5,1,no
7,1,1,1,0,2,1,1,7,0,7,7,1,no
3,1,0,0,0,0,2,2,4,1,3,2.5,1,no
3,0,0,0,0,0,1,1,3,0,3,3,1,no
3,0,0,0,0,0,1,1,3,0,3,3,0,no
14,1,2,1,0,2,5,4,17,3,10,4,1,no
31,0,0,0,0,0,3,1,31,0,20,10.333333,0,no
3,0,0,0,0,0,1,1,3,0,3,3,0,no
16,2,2,2,0,3,5,2,20,4,9,4.8,1,yes
3,0,0,0,0,0,2,2,4,1,3,2.5,0,no
7,1,1,1,0,0,2,2,8,1,8,4.5,1,no
3,0,0,0,0,0,1,1,3,0,3,3,0,no
3,0,0,0,0,0,0,0,0,0,0,0,0,no
18,1,1,1,0,6,3,2,3,2,2,1.666667,1,no
14,2,1,1,1,1,3,2,25,11,25,12,1,no
5,2,0,0,0,1,3,2,1,7,4,2.666667,1,no
45,0,8,5,0,8,6,3,97,52,81,24.833333,1,no
11,4,1,1,0,1,3,1,15,4,10,6.333333,0,no
16,1,4,2,1,0,2,2,30,14,30,22,1,no
16,1,2,2,0,0,3,1,18,2,16,6.666667,0,no
11,0,2,1,0,0,8,4,25,62,52,10.875,1,no
3,0,0,0,0,0,5,3,6,15,14,4.2,1,no
29,1,5,3,2,0,11,2,37,8,23,4.090909,1,no
34,0,5,1,2,0,13,3,45,11,19,4.307692,1,no
42,0,10,3,2,0,5,2,44,2,33,9.2,1,no
23,0,4,1,0,0,1,1,23,0,23,23,0,no
13,1,1,1,1,1,4,2,16,3,14,4.75,1,no
18,0,4,2,0,0,2,1,19,1,18,10,0,no
3,0,0,0,0,0,1,1,3,0,3,3,0,no
6,2,1,1,0,0,1,1,6,0,6,6,1,no
3,1,0,0,0,0,1,1,3,0,3,3,1,no
3,0,0,0,0,0,1,1,3,0,3,3,1,no
3,2,0,0,0,0,1,1,3,0,3,3,1,no
3,0,0,0,0,0,1,1,3,0,3,3,1,no
3,0,0,0,0,0,1,1,3,0,3,3,1,no
40,3,8,5,0,8,2,2,40,0,29,20,1,no
3,0,0,0,0,0,1,1,3,0,3,3,0,no
2,1,0,0,0,0,1,1,2,0,2,2,0,no
3,1,0,0,0,0,1,1,3,0,3,3,0,no
2,1,0,0,0,0,1,1,2,0,2,2,0,no
3,1,0,0,0,0,1,1,3,0,3,3,0,no
3,1,0,0,0,0,1,1,3,0,3,3,0,no
4,0,0,0,0,0,1,1,4,0,4,4,0,no
5,1,1,1,0,0,1,1,5,0,5,5,1,no
8,1,1,1,0,0,1,1,8,0,8,8,1,no
3,1,0,0,0,0,1,1,3,0,3,3,1,no
4,0,0,0,0,0,1,1,4,0,4,4,1,no
6,2,1,1,0,0,2,2,6,0,4,3,1,no
3,0,0,0,0,0,1,1,3,0,3,3,1,no
3,0,0,0,0,0,1,1,3,0,3,3,1,no
5,1,0,0,0,0,1,1,5,0,5,5,1,no
3,0,0,0,0,0,0,0,0,0,0,0,0,no
5,0,1,1,0,0,0,0,0,0,0,0,0,no
6,5,1,1,0,0,0,0,0,0,0,0,0,no
3,0,0,0,0,0,1,1,3,0,3,3,1,no
6,5,1,1,0,0,1,1,6,0,6,6,1,no
5,3,0,0,0,0,1,1,5,0,5,5,1,no
3,2,0,0,0,0,1,1,0,2,2,2,1,no
3,0,0,0,0,0,0,0,0,0,0,0,0,no
3,0,0,0,0,0,0,0,0,0,0,0,0,no
4,1,0,0,0,0,1,1,1,0,1,1,1,no
3,0,0,0,0,0,0,0,0,0,0,0,0,no
5,5,1,1,0,0,2,1,5,0,3,2.5,0,no
3,1,0,0,0,0,1,1,3,0,3,3,0,no
3,0,0,0,0,0,1,1,3,0,3,3,0,no
3,0,0,0,0,0,2,2,4,1,3,2.5,0,no
3,0,0,0,0,0,1,1,3,0,3,3,0,no
3,2,0,0,0,0,1,1,3,0,3,3,0,no
3,1,0,0,0,0,1,1,3,0,3,3,0,no
4,2,0,0,1,0,1,1,4,0,4,4,0,no
0,0,0,0,1,0,1,1,0,0,0,0,0,no
8,1,1,1,1,3,1,1,8,0,8,8,0,no
39,3,4,1,0,7,3,2,40,1,34,13.666667,1,no
9,1,1,1,0,2,1,1,9,0,9,9,0,no
6,0,1,1,0,0,3,2,8,2,6,3.333333,1,no
12,1,2,2,0,3,2,2,13,1,12,7,0,yes
5,0,1,1,0,0,1,1,5,0,5,5,0,no
21,1,3,2,0,4,1,1,21,0,21,21,0,no
4,0,0,0,0,1,3,2,6,2,5,2.666667,1,no
14,0,0,0,0,0,5,4,15,1,9,3.2,0,no
35,1,5,4,0,9,2,1,36,1,36,18.5,0,no
17,1,2,1,0,3,1,1,17,0,17,17,0,no
16,1,2,1,0,3,1,1,16,0,16,16,0,no
4,2,0,0,0,0,1,1,4,0,4,4,0,no
13,2,0,0,0,0,1,1,13,0,13,13,0,no
3,2,0,0,0,0,2,2,4,1,4,2.5,1,no
14,2,1,1,0,1,1,1,14,0,14,14,0,no
9,1,0,0,1,0,2,2,10,1,9,5.5,0,yes
3,1,0,0,0,0,1,1,3,0,3,3,0,no
3,3,0,0,0,0,1,1,3,0,3,3,0,no
7,3,1,1,0,0,1,1,7,0,7,7,0,no
5,0,0,0,0,0,1,1,5,0,5,5,0,no
3,0,0,0,0,0,1,1,3,0,3,3,0,no
3,0,0,0,0,0,1,1,3,0,3,3,0,no
3,0,0,0,0,0,1,1,3,0,3,3,0,no
36,1,5,3,2,6,1,1,36,0,36,36,0,no
5,0,0,0,0,0,1,1,5,0,5,5,0,no
3,0,0,0,0,0,1,1,3,0,3,3,0,no
3,0,0,0,0,0,1,1,3,0,3,3,0,no
3,0,0,0,0,0,1,1,3,0,3,3,0,no
7,1,1,0,2,4,1,1,7,0,7,7,0,no
0,0,0,0,1,0,1,1,0,0,0,0,0,no
0,1,0,0,1,0,1,1,0,0,0,0,0,no
4,0,0,0,0,0,1,1,4,0,4,4,0,no
15,1,2,1,0,2,1,1,15,0,15,15,0,no
3,0,0,0,0,0,1,1,3,0,3,3,0,no
4,1,0,0,0,0,1,1,4,0,4,4,0,no
4,0,0,0,0,0,1,1,4,0,4,4,0,no
3,0,0,0,0,0,1,1,3,0,3,3,0,no
3,0,0,0,0,0,1,1,3,0,3,3,0,no
3,0,0,0,0,0,1,1,3,0,3,3,0,no
25,1,4,1,0,3,1,1,25,0,25,25,0,no
6,0,0,0,0,0,2,2,6,0,4,3,0,no
3,0,0,0,0,0,2,2,4,1,3,2.5,0,no
3,0,0,0,0,0,1,1,3,0,3,3,0,no
3,0,0,0,0,0,2,2,4,1,3,2.5,0,no
33,1,6,2,2,9,2,2,33,0,18,16.5,0,no
5,0,0,0,0,0,1,1,5,0,5,5,0,no
3,0,0,0,0,0,1,1,3,0,3,3,0,no
3,0,0,0,0,0,1,1,3,0,3,3,0,no
3,0,0,0,0,0,1,1,3,0,3,3,0,no
7,1,1,0,2,4,1,1,7,0,7,7,0,no
3,1,0,0,0,0,1,1,3,0,3,3,0,no
0,0,0,0,0,0,1,1,0,0,0,0,0,no
0,0,0,0,0,0,1,1,0,0,0,0,0,no
0,0,0,0,0,0,1,1,0,0,0,0,0,no
5,0,0,0,0,1,1,1,5,0,5,5,0,no
0,1,0,0,0,0,1,1,0,0,0,0,0,no
11,1,1,1,0,2,1,1,11,0,11,11,0,no
4,0,0,0,0,0,1,1,4,0,4,4,0,no
3,0,0,0,0,0,1,1,3,0,3,3,0,no
3,0,0,0,0,0,1,1,3,0,3,3,0,no
3,0,0,0,0,0,1,1,3,0,3,3,0,no
28,1,4,2,0,6,1,1,28,0,28,28,0,no
4,0,0,0,0,0,1,1,4,0,4,4,0,no
3,0,0,0,0,0,1,1,3,0,3,3,0,no
3,0,0,0,0,0,1,1,3,0,3,3,0,no
3,0,0,0,0,0,1,1,3,0,3,3,0,no
28,1,4,2,0,6,1,1,28,0,28,28,0,no
3,0,0,0,0,0,1,1,3,0,3,3,0,no
19,2,3,2,0,4,1,1,19,0,19,19,0,no
3,0,0,0,0,0,1,1,3,0,3,3,0,no
3,0,0,0,0,0,1,1,3,0,3,3,0,no
3,0,0,0,0,0,1,1,3,0,3,3,0,no
15,1,2,2,0,3,1,1,15,0,15,15,0,no
4,2,0,0,0,0,1,1,4,0,4,4,0,no
4,1,0,0,0,0,2,1,5,1,4,3,0,no
3,2,0,0,1,0,1,1,3,0,3,3,0,no
3,2,0,0,0,0,1,1,3,0,3,3,0,no
3,2,0,0,0,0,1,1,0,3,3,3,0,no
8,3,0,0,0,0,1,1,8,0,8,8,0,no
4,0,0,0,0,0,1,1,4,0,4,4,0,no
8,1,1,1,0,0,2,1,1,7,6,4,0,no
8,0,1,1,0,0,2,2,11,3,11,7,0,no
5,1,0,0,0,1,2,2,8,3,8,5.5,0,no
3,0,0,0,0,0,1,1,3,0,3,3,0,no
3,0,0,0,0,0,0,0,0,0,0,0,0,no
50,2,11,6,0,7,3,2,3,5,4,2.666667,1,no
17,1,3,2,0,2,1,1,0,7,7,7,0,no
3,1,0,0,0,0,1,1,3,0,3,3,0,no
3,0,0,0,0,0,1,1,3,0,3,3,0,no
3,0,0,0,0,0,1,1,3,0,3,3,0,no
6,0,1,1,0,0,1,1,6,0,6,6,0,no
6,2,0,0,0,0,1,1,6,0,6,6,0,no
4,0,0,0,0,0,1,1,4,0,4,4,0,no
31,2,5,4,1,6,1,1,31,0,31,31,0,no
0,2,0,0,1,0,1,1,0,0,0,0,0,no
0,0,0,0,1,0,1,1,0,0,0,0,0,no
6,1,1,1,0,0,1,1,6,0,6,6,0,no
3,1,0,0,0,0,1,1,3,0,3,3,0,no
6,1,1,1,0,0,2,2,7,1,6,4,0,no
3,1,0,0,0,0,1,1,3,0,3,3,0,no
2,0,0,0,0,0,1,1,2,0,2,2,1,no
7,2,1,1,0,1,1,1,7,0,7,7,1,no
14,1,1,1,0,4,2,2,15,1,14,8,1,no
4,1,0,0,0,1,4,2,6,2,3,2,1,no
28,1,5,3,1,4,1,1,28,0,28,28,0,no
9,1,0,1,0,2,4,3,11,2,5,3.25,1,no
13,2,0,1,0,5,3,2,14,1,8,5,1,no
3,1,0,0,0,0,1,1,3,0,3,3,0,no
16,0,2,1,0,2,2,1,16,0,11,8,1,no
5,0,0,0,0,1,1,1,5,0,5,5,0,no
14,1,3,3,2,1,2,1,14,0,9,7,1,no
14,1,1,2,0,3,3,3,16,2,14,6,1,no
19,2,3,3,0,4,4,3,21,2,18,5.75,1,no
3,0,0,0,0,0,1,1,3,0,3,3,0,no
4,2,0,0,0,0,1,1,4,0,4,4,0,no
7,1,1,1,0,1,1,1,7,0,7,7,0,no
3,0,0,0,0,0,1,1,3,0,3,3,0,no
3,0,0,0,0,0,1,1,3,0,3,3,0,no
3,0,0,0,0,0,1,1,3,0,3,3,0,no
7,2,3,1,3,1,1,1,7,0,7,7,0,no
3,2,0,0,0,0,3,2,17,14,16,10.333333,1,no
23,3,4,2,0,3,3,2,23,0,18,7.666667,0,no
3,2,0,0,0,0,5,1,6,16,13,4.4,1,no
18,3,3,3,0,3,2,1,19,1,18,10,0,no
5,1,1,1,0,0,1,1,5,0,5,5,0,no
3,0,0,0,0,0,1,1,3,0,3,3,0,no
9,1,2,1,1,1,1,1,9,0,9,9,0,no
14,0,3,2,1,1,6,3,33,19,25,8.666667,1,no
9,1,2,2,0,2,1,1,1,1,2,2,0,no
4,0,0,0,0,0,1,1,0,1,1,1,0,no
6,0,1,1,1,0,2,1,6,0,5,3,0,no
20,0,3,2,1,3,2,1,20,0,16,10,0,no
9,1,2,1,1,1,1,1,9,0,9,9,0,no
16,1,2,1,2,4,3,1,1,4,2,1.666667,1,no
3,0,0,0,0,0,2,1,4,1,3,2.5,0,no
3,1,0,0,0,0,1,1,3,0,3,3,0,no
26,1,4,2,2,6,3,1,6,2,4,2.666667,1,no
3,0,0,0,0,0,1,1,3,0,3,3,0,no
31,0,2,1,0,0,3,1,31,0,19,10.333333,0,no
4,0,0,0,0,0,2,1,4,0,3,2,0,no
9,1,2,2,0,2,2,1,10,1,9,5.5,0,no
3,1,0,0,0,0,1,1,3,0,3,3,0,no
4,2,0,0,0,1,1,1,4,0,4,4,0,no
3,1,0,0,0,0,1,1,3,0,3,3,0,no
43,3,7,1,2,11,5,2,8,4,4,2.4,1,no
13,4,3,3,0,1,1,1,13,0,13,13,0,no
22,1,4,2,3,3,4,2,25,3,22,7,1,no
14,1,2,1,1,1,3,1,21,7,19,9.333333,0,no
10,1,2,2,2,1,1,1,10,0,10,10,0,no
3,0,0,0,0,0,1,1,3,0,3,3,0,no
47,2,8,2,2,10,3,1,48,1,46,16.333333,0,yes
15,2,1,2,2,2,3,2,3,2,2,1.666667,1,yes
20,0,3,2,2,2,7,3,19,4,5,3.285714,1,no
3,1,0,0,0,0,1,1,3,0,3,3,1,no
2,0,0,0,0,0,1,1,2,0,2,2,0,no
5,1,1,1,0,0,1,1,5,0,5,5,0,no
2,1,0,0,0,0,1,1,2,0,2,2,0,no
5,1,1,1,0,0,1,1,5,0,5,5,0,no
2,1,0,0,0,0,1,1,2,0,2,2,0,no
2,1,0,0,0,0,1,1,2,0,2,2,0,no
2,0,0,0,0,0,1,1,2,0,2,2,0,no
3,0,0,0,0,0,1,1,3,0,3,3,0,no
4,4,0,0,0,0,1,1,4,0,4,4,0,no
3,0,0,0,0,0,1,1,3,0,3,3,0,no
0,0,0,0,1,0,1,1,0,0,0,0,0,no
0,1,0,0,1,0,1,1,0,0,0,0,0,no
0,3,0,0,1,0,1,1,0,0,0,0,0,no
4,1,0,0,0,0,1,1,4,0,4,4,0,no
25,0,4,3,2,7,1,1,25,0,25,25,0,no
28,0,5,3,1,1,1,1,28,0,28,28,0,no
4,0,0,0,0,0,1,1,4,0,4,4,0,no
3,0,0,0,0,0,1,1,3,0,3,3,0,no
5,2,0,0,0,0,2,1,5,0,4,2.5,1,no
31,1,7,3,1,1,4,1,32,1,26,8.25,1,no
9,1,2,1,1,1,1,1,9,0,9,9,0,no
7,1,1,1,0,0,2,1,8,1,7,4.5,1,yes
3,0,0,0,0,0,1,1,3,0,3,3,1,no
7,0,1,1,0,0,1,1,7,0,7,7,1,no
3,0,0,0,0,0,1,1,3,0,3,3,0,no
4,0,0,0,0,0,1,1,4,0,4,4,1,no
3,0,0,0,0,0,1,1,3,0,3,3,0,no
3,0,0,0,0,0,2,2,4,1,3,2.5,1,no
4,0,0,0,0,0,1,1,4,0,4,4,1,no
3,1,0,0,0,0,1,1,3,0,3,3,0,no
44,2,9,3,2,4,4,2,45,1,41,11.5,0,no
3,2,0,0,0,0,1,1,0,8,8,8,1,no
21,2,3,2,0,2,4,1,21,0,12,5.25,1,no
34,0,7,3,0,3,5,1,35,1,29,7.2,1,no
10,0,2,2,1,1,3,2,3,3,2,2,1,no
11,0,1,1,0,0,1,1,11,0,11,11,1,no
8,0,1,1,0,1,1,1,1,0,1,1,1,no
3,0,0,0,0,0,1,1,1,1,2,2,0,no
22,2,3,3,0,3,2,1,3,0,2,1.5,1,no
11,0,0,0,0,1,2,1,11,0,10,5.5,1,no
22,1,4,1,2,3,4,3,32,10,30,10.5,1,no
31,1,8,6,0,5,4,3,32,1,23,8.25,1,no
8,1,1,1,0,2,1,1,8,0,8,8,1,no
20,2,5,3,1,3,2,2,20,0,18,10,1,no
47,1,7,3,4,8,2,1,48,1,47,24.5,0,no
22,1,4,2,1,2,1,1,22,0,22,22,1,no
4,1,0,0,0,1,1,1,4,0,4,4,0,no
34,1,5,4,0,5,3,2,35,1,30,12,1,no
58,1,9,4,0,10,5,3,59,1,48,12,1,no
9,2,2,1,3,0,1,1,9,0,9,9,1,no
20,2,5,4,0,3,1,1,20,0,20,20,1,no
3,2,0,0,0,0,2,2,6,3,6,4.5,1,no
5,1,1,1,0,0,1,1,5,0,5,5,1,no
0,1,0,0,1,0,1,1,0,0,0,0,0,no
0,1,0,0,2,0,1,1,0,0,0,0,0,no
55,5,10,2,2,0,1,1,55,0,55,55,0,no
11,2,1,1,0,0,1,1,11,0,11,11,0,no
5,0,1,1,1,0,1,1,5,0,5,5,0,no
48,1,9,2,1,7,4,3,51,3,32,13.5,1,no
14,0,4,3,1,3,4,2,17,3,14,5,0,no
3,0,0,0,0,0,4,2,14,11,12,6.25,0,no
6,0,1,1,2,0,1,1,6,0,6,6,0,no
7,2,0,0,0,2,3,3,12,5,11,5.666667,1,no
24,1,5,2,1,4,7,3,28,4,11,4.571429,1,no
5,1,1,1,0,0,1,1,5,0,5,5,0,no
34,0,5,2,2,2,7,3,43,9,35,7.428571,1,no
8,0,1,1,0,0,2,2,8,0,7,4,0,no
11,2,2,2,0,2,1,1,11,0,11,11,0,no
10,1,2,2,0,0,1,1,10,0,10,10,0,no
4,0,0,0,0,0,1,1,4,0,4,4,0,no
23,1,1,1,0,3,1,1,23,0,23,23,0,no
5,0,0,0,0,0,1,1,5,0,5,5,0,no
27,0,5,2,1,3,2,2,27,0,23,13.5,0,no
3,1,0,0,0,0,1,1,3,0,3,3,0,no
13,3,1,1,0,2,1,1,13,0,13,13,0,no
5,1,0,0,0,0,1,1,5,0,5,5,1,no
10,2,1,1,0,1,1,1,10,0,10,10,1,no
3,1,0,0,0,0,1,1,3,0,3,3,1,no
6,0,1,1,0,0,1,1,6,0,6,6,1,no
3,0,0,0,0,0,1,1,3,0,3,3,1,no
7,1,1,1,0,1,1,1,7,0,7,7,1,no
5,0,0,0,0,1,1,1,5,0,5,5,1,no
3,1,0,0,0,0,1,1,3,0,3,3,1,no
3,1,0,0,0,0,1,1,3,0,3,3,1,no
3,3,0,0,0,0,1,1,3,0,3,3,0,no
5,3,0,0,0,0,1,1,5,0,5,5,0,no
0,2,0,0,0,0,1,1,0,0,0,0,0,no
0,1,0,0,0,0,1,1,0,0,0,0,0,no
3,1,0,0,0,0,1,1,3,0,3,3,0,no
11,2,2,2,1,1,3,1,13,2,12,5,0,yes
10,1,2,2,1,1,3,1,12,2,11,4.666667,0,yes
12,4,1,1,0,0,2,2,13,1,12,7,0,no
19,1,4,2,0,1,2,2,30,11,30,20.5,0,no
22,1,4,3,1,5,2,2,37,15,37,26,0,no
3,0,0,0,0,0,1,1,3,0,3,3,0,no
15,2,2,2,0,3,2,2,16,1,15,8.5,0,no
3,1,0,0,0,0,2,2,20,17,20,18.5,0,no
10,3,2,1,0,1,2,2,12,2,12,7,0,no
3,0,0,0,0,0,2,2,4,1,3,2.5,0,no
3,0,0,0,0,0,1,1,3,0,3,3,0,no
3,0,0,0,0,0,1,1,3,0,3,3,0,no
25,2,5,2,0,3,2,2,60,35,60,47.5,0,no
18,2,2,2,1,2,2,2,18,0,16,9,0,no
11,3,1,1,0,3,2,2,11,0,10,5.5,0,no
7,1,1,1,0,1,2,2,11,4,11,7.5,0,no
4,0,0,0,0,0,1,1,4,0,4,4,0,no
7,1,1,1,0,0,1,1,7,0,7,7,0,no
3,0,0,0,0,0,1,1,3,0,3,3,0,no
21,1,5,3,2,4,1,1,21,0,21,21,0,no
18,1,4,3,1,4,1,1,18,0,18,18,0,no
7,2,1,1,0,1,1,1,7,0,7,7,0,no
38,2,6,3,3,4,1,1,38,0,38,38,0,no
3,1,0,0,0,0,1,1,3,0,3,3,0,no
3,1,0,0,0,0,1,1,3,0,3,3,0,no
3,1,0,0,0,0,1,1,3,0,3,3,0,no
3,1,0,0,0,0,1,1,3,0,3,3,0,no
16,1,3,2,0,3,1,1,16,0,16,16,0,no
12,1,2,2,0,2,1,1,12,0,12,12,0,no
7,1,1,1,0,0,1,1,7,0,7,7,0,no
10,5,0,0,0,0,1,1,10,0,10,10,0,no
9,0,2,2,0,2,2,2,11,2,11,6.5,0,no
16,0,3,2,0,2,2,2,16,0,8,8,0,no
10,1,2,2,0,3,1,1,10,0,10,10,0,no
48,2,8,4,1,8,2,2,48,0,46,24,0,no
14,1,2,2,0,1,2,2,15,1,14,8,0,no
32,0,11,9,2,6,1,1,32,0,32,32,0,no
21,2,3,3,0,3,2,2,24,3,24,13.5,0,no
3,1,0,0,0,0,1,1,3,0,3,3,0,no
25,0,0,0,0,0,4,2,26,1,17,6.75,0,no
12,1,0,0,0,3,1,1,12,0,12,12,0,no
5,2,0,0,0,2,1,1,5,0,5,5,0,no
3,0,0,0,0,0,1,1,3,0,3,3,0,no
3,0,0,0,0,0,1,1,3,0,3,3,0,no
35,2,7,5,0,7,2,2,36,1,35,18.5,0,no
11,1,1,2,0,1,1,1,11,0,11,11,0,no
10,1,2,2,0,2,2,2,12,2,12,7,0,no
4,2,0,0,0,1,1,1,4,0,4,4,0,no
20,4,3,2,0,2,1,1,20,0,20,20,0,no
11,1,2,2,0,2,2,2,18,7,18,12.5,0,no
7,2,1,1,0,1,1,1,7,0,7,7,0,no
17,1,1,2,0,1,2,2,19,2,19,10.5,0,no
11,1,1,2,0,1,1,1,11,0,11,11,0,no
10,2,1,2,0,1,1,1,10,0,10,10,0,no
19,1,3,2,0,2,2,2,20,1,19,10.5,0,no
26,5,7,2,0,4,2,2,27,1,26,14,0,no
3,2,0,0,0,0,1,1,3,0,3,3,0,no
2,0,0,0,0,0,1,1,2,0,2,2,0,no
2,1,0,0,0,0,1,1,2,0,2,2,0,no
2,1,0,0,0,0,1,1,2,0,2,2,0,no
2,1,0,0,0,0,1,1,2,0,2,2,0,no
2,1,0,0,0,0,1,1,2,0,2,2,0,no
2,1,0,0,0,0,1,1,2,0,2,2,0,no
2,0,0,0,0,0,1,1,2,0,2,2,0,no
3,4,0,0,0,0,2,2,7,4,7,5.5,0,no
8,5,1,0,0,0,2,1,8,0,7,4,0,no
7,1,0,0,0,2,2,1,9,2,9,5.5,0,no
9,1,1,1,0,1,1,1,9,0,9,9,0,no
7,0,1,1,0,0,3,2,24,17,24,13.666667,1,no
26,1,6,2,0,1,1,1,26,0,26,26,0,no
11,2,2,1,0,1,2,2,12,1,11,6.5,1,no
3,0,0,0,0,0,1,1,3,0,3,3,0,no
30,0,0,0,0,0,2,1,30,0,22,15,0,no
3,1,0,0,0,0,1,1,3,0,3,3,1,no
3,1,0,0,0,0,1,1,3,0,3,3,0,no
3,0,0,0,0,0,1,1,3,0,3,3,0,no
3,3,0,0,0,0,1,1,3,0,3,3,0,no
5,4,0,0,0,1,1,1,5,0,5,5,0,no
3,1,0,0,0,0,1,1,3,0,3,3,0,no
3,1,0,0,0,0,1,1,3,0,3,3,1,no
3,2,0,0,0,0,1,1,3,0,3,3,0,no
10,0,1,1,0,0,3,2,10,0,5,3.333333,1,no
3,0,0,0,0,0,1,1,3,0,3,3,0,no
3,0,0,0,0,0,2,1,4,1,3,2.5,0,no
3,1,0,0,0,0,2,1,4,1,3,2.5,0,no
2,1,0,0,0,0,1,1,2,0,2,2,0,no
3,1,0,0,0,0,2,1,4,1,3,2.5,0,no
3,1,0,0,0,0,1,1,3,0,3,3,0,no
3,1,0,0,0,0,1,1,3,0,3,3,0,no
2,0,0,0,0,0,1,1,2,0,2,2,0,no
5,1,1,1,0,0,1,1,5,0,5,5,0,no
3,0,0,0,0,0,1,1,3,0,3,3,0,no
5,1,1,1,0,0,1,1,5,0,5,5,0,no
19,2,0,0,1,0,5,2,21,2,10,4.6,0,no
24,2,6,5,1,7,1,1,24,0,24,24,0,no
11,2,2,2,0,2,1,1,11,0,11,11,0,no
3,0,0,0,0,0,1,1,3,0,3,3,0,no
3,0,0,0,0,0,1,1,3,0,3,3,0,no
21,2,4,3,0,6,1,1,21,0,21,21,0,no
6,3,0,0,0,2,2,1,7,1,6,4,0,no
3,0,0,0,0,0,1,1,3,0,3,3,0,no
26,1,5,2,1,4,5,2,30,4,27,6.8,0,no
79,0,17,7,3,11,10,3,82,3,58,8.5,1,no
38,3,6,3,0,6,2,1,39,1,38,20,0,no
19,0,3,2,0,0,3,1,19,0,12,6.333333,0,no
6,1,1,1,0,0,2,2,7,1,6,4,0,no
9,6,0,0,1,0,2,1,9,0,8,4.5,0,no
10,0,2,2,0,0,1,1,10,0,10,10,0,no
15,1,2,2,0,0,1,1,15,0,15,15,0,no
5,0,1,1,0,1,1,1,5,0,5,5,0,no
5,2,0,0,0,0,1,1,5,0,5,5,0,no
39,0,9,5,0,3,1,1,39,0,39,39,0,no
5,0,0,0,0,0,1,1,5,0,5,5,0,no
0,1,0,0,1,0,1,1,0,0,0,0,0,no
3,1,0,0,0,0,1,1,3,0,3,3,0,no
7,1,1,1,1,0,3,2,9,2,7,3.666667,0,no
0,3,0,0,1,0,1,1,0,0,0,0,0,no
3,2,0,0,0,0,2,2,4,1,4,2.5,0,no
3,0,0,0,0,0,1,1,3,0,3,3,0,no
3,0,0,0,0,0,2,2,4,1,3,2.5,0,no
26,0,4,4,1,7,4,2,30,4,23,8.5,0,no
22,1,2,2,3,6,1,1,22,0,22,22,0,no
3,2,0,0,0,0,1,1,3,0,3,3,0,no
3,0,0,0,0,0,2,1,8,0,5,4,0,no
3,1,0,0,0,0,1,1,3,0,3,3,0,no
8,1,2,2,0,0,1,1,8,0,8,8,0,no
6,1,1,1,0,0,1,1,6,0,6,6,0,no
3,0,0,0,0,0,1,1,3,0,3,3,0,no
3,0,0,0,0,0,1,1,3,0,3,3,0,no
8,6,0,0,0,0,1,1,8,0,8,8,0,no
6,0,1,1,0,0,1,1,6,0,6,6,0,no
3,2,0,0,0,0,3,2,5,2,3,2.333333,0,no
3,4,0,0,0,0,1,1,3,0,3,3,0,no
3,5,0,0,0,0,1,1,3,0,3,3,0,no
3,5,0,0,0,0,1,1,3,0,3,3,0,no
61,6,8,4,0,6,1,1,61,0,61,61,0,no
3,0,0,0,0,0,1,1,3,0,3,3,0,no
14,1,3,2,0,1,2,1,14,0,11,7,0,no
6,0,1,1,0,0,1,1,6,0,6,6,0,no
3,0,0,0,0,0,1,1,3,0,3,3,0,no
7,0,1,1,0,0,1,1,7,0,7,7,0,no
3,1,0,0,0,0,1,1,3,0,3,3,0,no
0,1,0,0,1,0,1,1,0,0,0,0,0,no
0,1,0,0,1,0,1,1,0,0,0,0,0,no
0,1,0,0,1,0,1,1,0,0,0,0,0,no
0,1,0,0,1,0,1,1,0,0,0,0,0,no
0,1,0,0,0,0,3,1,2,25,23,9,1,no
0,1,0,0,0,0,4,1,2,97,66,24.75,1,no
0,2,0,0,0,0,3,1,2,21,19,7.666667,1,no
0,0,0,0,0,0,1,1,0,0,0,0,0,no
0,1,0,0,0,0,2,1,1,21,20,11,0,no
0,1,0,0,0,0,1,1,0,0,0,0,1,no
0,1,0,0,0,0,1,1,0,0,0,0,0,no
0,3,0,0,0,0,2,1,1,18,17,9.5,0,no
0,1,0,0,0,0,1,1,0,0,0,0,0,no
0,1,0,0,0,0,1,1,0,0,0,0,1,no
0,2,0,0,0,0,1,1,0,0,0,0,0,no
6,3,0,0,0,0,2,1,16,10,16,13,0,no
3,0,0,0,0,0,3,2,11,8,8,6.333333,1,no
5,1,0,0,0,0,7,3,38,33,30,10.142857,1,no
3,1,0,0,0,0,6,2,48,45,43,15.5,1,no
3,2,0,0,0,0,3,2,19,16,19,11.666667,1,no
3,0,0,0,0,0,1,1,3,0,3,3,0,no
3,0,0,0,0,0,1,1,3,0,3,3,0,no
32,0,0,0,0,0,4,2,42,10,40,13,0,no
5,1,0,0,1,2,2,2,51,46,51,48.5,0,no
3,0,0,0,0,0,1,1,3,0,3,3,0,no
3,1,0,0,0,0,3,3,14,11,14,8.333333,1,no
3,1,0,0,0,0,2,2,12,9,12,10.5,0,no
3,3,0,0,0,0,4,3,17,14,17,7.75,1,no
3,1,0,0,0,0,3,2,20,17,20,12.333333,1,no
3,1,0,0,0,0,3,3,14,11,14,8.333333,1,no
3,2,0,0,0,0,3,2,10,7,7,5.666667,1,no
3,0,0,0,0,0,1,1,3,0,3,3,0,no
3,0,0,0,0,0,1,1,3,0,3,3,0,no
3,0,0,0,0,0,1,1,3,0,3,3,0,no
3,0,0,0,0,0,1,1,3,0,3,3,0,no
3,0,0,0,0,0,1,1,3,0,3,3,0,no
3,0,0,0,0,0,1,1,3,0,3,3,0,no
3,0,0,0,0,0,1,1,3,0,3,3,0,no
0,0,0,0,1,0,1,1,0,0,0,0,0,no
0,0,0,0,1,0,1,1,0,0,0,0,0,no
0,0,0,0,1,0,1,1,0,0,0,0,0,no
0,0,0,0,1,0,1,1,0,0,0,0,0,no
0,0,0,0,1,0,1,1,0,0,0,0,0,no
0,1,0,0,0,0,1,1,0,11,11,11,0,no
0,1,0,0,0,0,2,1,16,16,16,16,1,no
5,3,0,0,0,1,1,1,5,0,5,5,0,no
6,2,1,1,0,0,1,1,6,0,6,6,0,no
0,0,0,0,0,0,2,1,3,3,3,3,0,no
0,0,0,0,0,0,2,1,3,3,3,3,0,no
0,1,0,0,0,0,5,1,6,45,32,10.2,1,no
0,0,0,0,0,0,2,1,3,3,3,3,0,no
5,3,0,0,0,0,1,1,5,0,5,5,0,no
8,1,1,1,0,1,2,1,11,3,11,7,0,no
5,1,1,1,0,0,1,1,5,0,5,5,0,no
3,0,0,0,0,0,1,1,3,0,3,3,0,no
3,0,0,0,0,0,2,1,4,1,3,2.5,1,no
3,1,0,0,0,0,2,1,11,8,11,9.5,0,no
3,0,0,0,0,0,2,1,4,1,3,2.5,1,no
3,2,0,0,0,0,1,1,3,0,3,3,0,no
4,1,0,0,0,0,1,1,4,0,4,4,0,no
4,1,0,0,0,0,1,1,4,0,4,4,0,no
4,0,0,0,0,0,1,1,4,0,4,4,0,no
8,2,0,0,0,0,2,1,9,1,8,5,0,no
5,1,1,1,0,0,1,1,5,0,5,5,0,no
14,1,2,2,1,3,1,1,14,0,14,14,0,no
19,2,3,2,0,3,1,1,19,0,19,19,0,no
3,0,0,0,0,0,1,1,3,0,3,3,0,no
3,0,0,0,0,0,1,1,3,0,3,3,0,no
9,0,1,1,0,2,1,1,9,0,9,9,0,no
3,0,0,0,0,0,1,1,3,0,3,3,1,no
3,1,0,0,0,0,1,1,3,0,3,3,0,no
3,0,0,0,0,0,2,1,4,1,4,2.5,1,no
14,1,2,2,0,4,1,1,14,0,14,14,1,no
8,0,1,1,0,0,2,2,8,0,7,4,0,no
4,0,0,0,0,0,1,1,4,0,4,4,0,no
0,0,0,0,0,0,1,1,0,0,0,0,0,no
0,1,0,0,0,0,1,1,0,0,0,0,0,no
0,1,0,0,0,0,1,1,0,0,0,0,0,no
0,1,0,0,0,0,1,1,0,0,0,0,0,no
0,1,0,0,0,0,1,1,0,0,0,0,0,no
0,1,0,0,0,0,1,1,0,0,0,0,0,no
0,0,0,0,0,0,1,1,0,0,0,0,0,no
4,1,0,0,0,0,2,2,4,0,3,2,0,no
11,1,3,2,1,1,2,2,11,0,10,5.5,1,no
50,0,15,4,1,8,5,3,50,0,37,10,1,no
3,1,0,0,0,0,1,1,3,0,3,3,0,no
3,2,0,0,0,0,2,1,5,2,5,3.5,0,no
9,3,1,1,0,0,1,1,9,0,9,9,0,no
5,0,1,1,0,0,1,1,1,1,2,2,0,no
8,1,1,1,0,1,1,1,4,0,4,4,0,no
3,0,0,0,0,0,1,1,3,0,3,3,0,no
3,0,0,0,0,0,1,1,1,1,2,2,0,no
3,0,0,0,0,0,1,1,3,0,3,3,0,no
3,0,0,0,0,0,1,1,3,0,3,3,0,no
8,0,2,1,1,1,2,1,2,2,2,2,0,no
8,0,2,2,0,1,1,1,8,0,8,8,0,no
3,0,0,0,0,0,1,1,1,1,2,2,0,no
3,0,0,0,0,0,1,1,3,0,3,3,0,no
4,1,0,0,0,0,0,0,0,0,0,0,0,no
5,0,0,0,0,0,0,0,0,0,0,0,0,no
3,0,0,0,0,0,1,1,1,1,2,2,0,no
3,0,0,0,0,0,0,0,0,0,0,0,0,no
3,0,0,0,0,0,1,1,1,1,2,2,0,no
3,0,0,0,0,0,0,0,0,0,0,0,0,no
11,1,2,2,0,0,1,1,1,0,1,1,0,no
9,0,2,1,2,1,1,1,3,0,3,3,0,no
6,1,1,1,2,0,1,1,3,0,3,3,0,no
6,2,1,1,0,0,1,1,6,0,6,6,0,no
12,2,2,1,0,0,1,1,6,0,6,6,0,no
9,0,1,0,0,1,1,1,1,1,2,2,0,no
6,0,1,1,2,1,1,1,3,0,3,3,0,no
7,0,0,0,0,0,1,1,1,0,1,1,0,no
0,1,0,0,0,0,1,1,0,0,0,0,0,no
0,1,0,0,0,0,1,1,0,0,0,0,0,no
0,0,0,0,0,0,1,1,0,0,0,0,0,no
0,2,0,0,0,0,1,1,0,0,0,0,0,no
0,0,0,0,0,0,1,1,0,0,0,0,0,no
0,1,0,0,0,0,1,1,0,0,0,0,1,no
0,1,0,0,0,0,1,1,0,0,0,0,0,no
0,1,0,0,0,0,1,1,0,0,0,0,0,no
0,1,0,0,0,0,1,1,0,0,0,0,1,no
0,2,0,0,0,0,1,1,0,0,0,0,0,no
0,0,0,0,0,0,1,1,0,0,0,0,0,no
0,0,0,0,0,0,1,1,0,0,0,0,0,no
3,0,0,0,0,0,1,1,3,0,3,3,0,no
3,1,0,0,0,0,1,1,3,0,3,3,0,no
3,2,0,0,0,0,1,1,3,0,3,3,0,no
7,1,3,1,3,1,1,1,7,0,7,7,0,no
3,0,0,0,0,0,1,1,3,0,3,3,0,no
3,0,0,0,0,0,1,1,3,0,3,3,0,no
4,1,0,0,0,0,1,1,4,0,4,4,0,no
4,2,0,0,0,0,1,1,4,0,4,4,0,no
5,0,0,0,0,1,1,1,5,0,5,5,0,no
4,1,0,0,0,0,1,1,4,0,4,4,0,no
2,1,0,0,0,0,0,0,0,0,0,0,0,no
2,0,0,0,0,0,0,0,0,0,0,0,0,no
3,3,0,0,0,0,0,0,0,0,0,0,0,no
3,3,0,0,0,0,0,0,0,0,0,0,0,no
3,0,0,0,0,0,0,0,0,0,0,0,0,no
3,1,0,0,0,0,0,0,0,0,0,0,0,no
3,1,0,0,0,0,0,0,0,0,0,0,0,no
3,2,0,0,0,0,0,0,0,0,0,0,0,no
3,3,0,0,0,0,0,0,0,0,0,0,0,no
3,0,0,0,0,0,0,0,0,0,0,0,0,no
3,3,0,0,0,0,0,0,0,0,0,0,0,no
3,3,0,0,0,0,0,0,0,0,0,0,0,no
3,1,0,0,0,0,0,0,0,0,0,0,0,no
3,3,0,0,0,0,0,0,0,0,0,0,0,no
3,1,0,0,0,0,0,0,0,0,0,0,0,no
3,2,0,0,0,0,0,0,0,0,0,0,0,no
3,3,0,0,0,0,0,0,0,0,0,0,0,no
3,1,0,0,0,0,3,1,5,2,3,2.333333,0,no
3,2,0,0,0,0,1,1,3,0,3,3,0,no
3,0,0,0,0,0,1,1,3,0,3,3,0,no
2,0,0,0,0,0,1,1,2,0,2,2,0,no
3,1,0,0,0,0,1,1,3,0,3,3,0,no
4,2,0,0,0,0,1,1,4,0,4,4,0,no
4,2,0,0,0,0,1,1,4,0,4,4,0,no
34,1,7,4,1,10,2,2,37,3,37,20,1,no
9,4,0,0,0,1,2,2,9,0,8,4.5,1,no
18,1,3,1,0,0,2,2,27,9,27,18,1,no
19,0,3,1,0,1,1,1,19,0,19,19,1,no
6,0,0,0,1,0,1,1,6,0,6,6,0,no
18,0,2,1,1,2,3,2,18,0,10,6,1,no
22,0,3,3,1,0,1,1,22,0,22,22,1,no
5,0,0,0,0,0,1,1,5,0,5,5,0,no
18,0,3,3,1,0,1,1,7,0,7,7,1,no
7,0,1,1,1,0,1,1,7,0,7,7,1,no
0,4,0,0,0,0,0,0,0,0,0,0,0,no
0,3,0,0,0,0,0,0,0,0,0,0,0,no
0,3,0,0,0,0,0,0,0,0,0,0,0,no
0,2,0,0,0,0,0,0,0,0,0,0,0,no
0,3,0,0,0,0,1,1,0,0,0,0,0,no
0,3,0,0,1,0,0,0,0,0,0,0,0,no
0,4,0,0,0,0,0,0,0,0,0,0,0,no
0,3,0,0,0,0,1,1,0,0,0,0,0,no
0,2,0,0,0,0,0,0,0,0,0,0,0,no
19,1,0,0,0,2,12,3,30,11,12,3.416667,1,no
4,2,0,0,0,0,2,2,5,1,4,3,0,no
3,3,0,0,0,0,11,3,23,20,18,3.909091,1,no
23,4,2,1,0,1,1,1,23,0,23,23,0,no
3,1,0,0,0,0,1,1,0,9,9,9,0,no
3,6,0,0,0,0,3,3,8,8,7,5.333333,1,no
6,7,1,1,1,0,1,1,6,0,6,6,0,yes
3,3,0,0,1,0,2,2,7,7,7,7,1,yes
11,3,1,1,0,0,1,1,11,0,11,11,0,no
3,5,0,0,1,0,4,3,9,9,7,4.5,1,yes
3,5,0,0,1,0,4,3,11,8,7,4.75,1,yes
23,0,5,1,0,0,6,2,25,2,12,4.5,1,yes
3,2,0,0,0,0,0,0,0,0,0,0,0,no
3,4,0,0,0,0,2,1,1,9,8,5,0,no
14,5,2,2,1,1,2,1,14,0,11,7,1,no
10,1,1,1,1,1,4,1,5,5,3,2.5,1,no
3,1,0,0,0,0,1,1,3,0,3,3,0,no
3,0,0,0,0,0,1,1,3,0,3,3,0,no
3,0,0,0,0,0,0,0,0,0,0,0,0,no
3,0,0,0,0,0,1,1,3,0,3,3,0,no
3,0,0,0,0,0,1,1,3,0,3,3,0,no
3,0,0,0,0,0,1,1,3,0,3,3,0,no
3,0,0,0,0,0,1,1,3,0,3,3,1,no
3,0,0,0,0,0,1,1,3,0,3,3,0,no
3,0,0,0,0,0,1,1,3,0,3,3,0,no
3,0,0,0,0,0,1,1,3,0,3,3,0,no
3,0,0,0,0,0,0,0,0,0,0,0,0,no
7,1,0,0,1,0,1,1,7,0,7,7,0,no
8,1,1,1,0,1,1,1,8,0,8,8,0,no
21,1,1,1,0,5,1,1,21,0,21,21,0,no
9,3,1,1,1,1,1,1,1,1,2,2,0,no
9,3,1,1,1,1,2,1,10,1,9,5.5,0,no
7,2,1,1,0,0,1,1,7,0,7,7,0,no
5,3,0,0,0,0,1,1,5,0,5,5,0,no
3,1,0,0,0,0,1,1,3,0,3,3,0,no
19,0,2,1,0,5,1,1,19,0,19,19,0,no
4,1,0,0,0,0,1,1,4,0,4,4,0,no
4,1,0,0,0,0,1,1,4,0,4,4,0,no
4,1,0,0,0,0,1,1,4,0,4,4,0,no
6,3,0,0,0,1,1,1,6,0,6,6,0,no
5,2,0,0,0,1,1,1,5,0,5,5,0,no
7,3,0,0,0,1,2,2,8,1,7,4.5,0,no
0,0,0,0,1,0,1,1,0,0,0,0,1,no
0,1,0,0,1,0,1,1,0,0,0,0,1,no
6,1,0,0,0,0,1,1,6,0,6,6,0,no
7,1,0,0,0,1,7,2,21,14,13,5,1,no
3,1,0,0,0,0,2,1,11,8,11,9.5,0,no
3,3,0,0,0,0,1,1,3,0,3,3,0,no
3,3,0,0,0,0,1,1,3,0,3,3,0,no
13,4,1,1,2,0,3,2,15,2,13,5.666667,1,no
3,4,0,0,0,0,1,1,3,0,3,3,0,no
4,0,0,0,0,0,1,1,4,0,4,4,0,no
54,3,10,4,0,7,5,4,57,3,53,12,1,no
19,5,0,0,1,2,2,1,26,7,26,16.5,1,no
3,0,0,0,0,0,2,2,4,1,4,2.5,1,no
31,4,5,3,2,3,5,3,34,3,28,7.4,1,no
9,2,1,1,1,1,1,1,9,0,9,9,1,no
3,0,0,0,0,0,1,1,3,0,3,3,1,no
41,0,6,4,1,2,1,1,41,0,41,41,0,no
3,1,0,0,0,0,1,1,3,0,3,3,1,no
10,1,1,1,0,1,1,1,10,0,10,10,0,no
10,1,1,1,0,1,1,1,10,0,10,10,0,no
23,2,2,1,2,2,2,2,23,0,19,11.5,1,no
87,4,17,5,5,16,6,2,92,5,53,16.166667,1,no
11,3,1,1,0,3,3,1,12,1,9,4.333333,0,no
20,4,4,2,2,2,5,2,26,6,21,6.4,1,no
8,3,1,1,2,0,1,1,8,0,8,8,0,no
36,0,6,4,1,1,1,1,36,0,36,36,1,no
14,0,4,4,0,0,1,1,14,0,14,14,1,no
11,0,2,2,1,0,1,1,11,0,11,11,1,no
3,0,0,0,0,0,1,1,3,0,3,3,1,no
81,3,17,5,5,16,3,2,82,1,70,27.666667,0,no
8,3,1,1,1,0,1,1,8,0,8,8,0,no
3,2,0,0,0,0,1,1,3,0,3,3,1,no
9,2,0,0,2,1,2,2,9,0,8,4.5,1,no
3,1,0,0,0,0,1,1,3,0,3,3,1,no
3,3,0,0,0,0,1,1,3,0,3,3,1,yes
3,1,0,0,0,0,1,1,3,0,3,3,0,no
4,3,0,0,0,0,2,1,8,4,8,6,0,no
4,0,0,0,0,0,2,2,4,0,3,2,1,no
7,4,0,0,0,0,1,1,7,0,7,7,0,no
14,1,2,2,2,3,1,1,14,0,14,14,0,no
14,0,2,1,2,1,3,2,14,0,6,4.666667,1,no
3,0,0,0,0,0,1,1,3,0,3,3,1,no
3,2,0,0,1,0,1,1,3,0,3,3,0,no
18,1,3,2,2,0,1,1,18,0,18,18,1,no
3,1,0,0,0,0,0,0,0,0,0,0,0,no
16,4,2,1,0,3,6,3,8,12,8,3.333333,1,yes
3,0,0,0,0,0,0,0,0,0,0,0,0,no
3,1,0,0,0,0,1,1,1,1,2,2,1,no
19,0,2,1,0,2,1,1,1,0,1,1,0,no
4,2,0,0,0,1,1,1,4,0,4,4,0,no
9,4,1,1,0,0,0,0,0,0,0,0,0,no
3,0,0,0,0,0,0,0,0,0,0,0,0,no
5,1,1,1,0,0,1,1,5,0,5,5,1,no
10,2,2,2,1,0,2,2,11,1,10,6,0,no
3,0,0,0,1,0,1,1,3,0,3,3,0,no
3,1,0,0,0,0,1,1,3,0,3,3,0,no
8,4,1,1,1,1,1,1,8,0,8,8,0,no
3,0,0,0,0,0,1,1,3,0,3,3,0,no
3,1,0,0,0,0,1,1,3,0,3,3,0,no
18,0,2,1,0,2,1,1,18,0,18,18,0,no
9,4,1,1,0,0,1,1,9,0,9,9,0,no
0,0,0,0,0,0,1,1,0,0,0,0,1,no
3,1,0,0,0,0,0,0,0,0,0,0,0,no
3,0,0,0,0,0,0,0,0,0,0,0,0,no
7,0,0,0,0,2,1,1,1,1,2,2,0,no
3,3,0,0,0,0,1,1,1,1,2,2,0,no
3,0,0,0,0,0,1,1,3,0,3,3,0,no
3,1,0,0,0,0,1,1,3,0,3,3,0,no
22,3,4,2,0,3,1,1,22,0,22,22,0,no
8,2,0,0,0,1,1,1,8,0,8,8,0,no
4,2,0,0,0,1,1,1,4,0,4,4,0,no
2,0,0,0,0,0,1,1,2,0,2,2,0,no
4,1,0,0,0,0,0,0,0,0,0,0,0,no
17,6,0,0,0,3,1,1,17,0,17,17,0,no
0,0,0,0,0,0,0,0,0,0,0,0,0,no
0,0,0,0,0,0,0,0,0,0,0,0,0,no
10,3,3,1,0,0,0,0,0,0,0,0,0,no
3,1,0,0,0,0,0,0,0,0,0,0,0,no
0,3,0,0,0,0,0,0,0,0,0,0,0,no
3,1,0,0,0,0,1,1,1,1,2,2,1,no
3,2,0,0,0,0,0,0,0,0,0,0,0,no
28,3,5,2,3,6,1,1,4,0,4,4,0,no
5,2,0,0,0,0,0,0,0,0,0,0,0,no
8,1,0,0,0,2,2,1,2,2,2,2,1,no
4,2,0,0,0,0,1,1,4,0,4,4,0,no
0,0,0,0,1,0,1,1,0,0,0,0,0,no
0,0,0,0,1,0,1,1,0,0,0,0,1,no
0,1,0,0,1,0,1,1,0,0,0,0,0,no
0,2,0,0,1,0,1,1,0,0,0,0,0,no
0,1,0,0,1,0,1,1,0,0,0,0,0,no
0,1,0,0,1,0,1,1,0,0,0,0,0,no
0,1,0,0,1,0,1,1,0,0,0,0,1,no
0,1,0,0,1,0,1,1,0,0,0,0,0,no
0,3,0,0,2,0,1,1,0,0,0,0,0,no
0,2,0,0,1,0,1,1,0,0,0,0,0,no
0,2,0,0,1,0,1,1,0,0,0,0,0,no
0,0,0,0,1,0,1,1,0,0,0,0,0,no
3,1,0,0,0,0,1,1,3,0,3,3,0,no
16,2,3,2,1,2,1,1,16,0,16,16,0,no
43,2,9,3,0,12,5,2,47,4,44,10.2,1,no
19,2,3,2,0,4,1,1,19,0,19,19,0,no
6,2,1,1,0,0,1,1,6,0,6,6,0,no
4,2,0,0,0,0,1,1,4,0,4,4,0,no
8,5,2,1,0,0,1,1,8,0,8,8,0,no
5,2,0,0,0,0,1,1,5,0,5,5,0,no
8,2,2,1,0,0,1,1,8,0,8,8,0,yes
5,3,0,0,0,0,1,1,5,0,5,5,0,no
9,5,3,2,0,0,1,1,9,0,9,9,0,no
10,8,0,0,0,0,2,2,10,0,8,5,0,no
8,2,1,1,0,0,1,1,8,0,8,8,0,no
12,0,1,1,0,1,7,2,15,6,9,3,1,no
18,2,3,1,2,0,2,2,19,1,18,10,0,no
9,4,0,0,0,0,2,2,3,0,2,1.5,1,no
3,0,0,0,0,0,3,2,3,3,2,2,1,no
8,2,1,1,0,0,2,2,8,0,5,4,1,yes
4,2,0,0,0,0,0,0,0,0,0,0,0,no
10,0,1,1,0,1,1,1,1,1,2,2,0,no
3,0,0,0,0,0,0,0,0,0,0,0,0,no
3,0,0,0,0,0,0,0,0,0,0,0,0,no
3,0,0,0,0,0,0,0,0,0,0,0,0,no
3,0,0,0,0,0,0,0,0,0,0,0,0,no
10,4,0,0,0,1,1,1,10,0,10,10,0,no
3,0,0,0,0,0,1,1,3,0,3,3,0,no
3,0,0,0,0,0,1,1,3,0,3,3,0,no
3,0,0,0,0,0,1,1,3,0,3,3,0,no
3,0,0,0,0,0,1,1,3,0,3,3,0,no
11,0,2,2,0,2,2,1,12,1,11,6.5,0,no
3,0,0,0,0,0,1,1,3,0,3,3,0,no
11,0,2,2,0,2,2,1,12,1,11,6.5,0,no
3,0,0,0,0,0,1,1,3,0,3,3,0,no
3,0,0,0,0,0,1,1,3,0,3,3,0,no
3,0,0,0,0,0,2,1,4,1,3,2.5,0,no
3,1,0,0,0,0,1,1,3,0,3,3,0,no
28,4,3,2,2,3,1,1,28,0,28,28,0,no
5,4,0,0,1,1,1,1,5,0,5,5,0,no
27,4,5,1,1,7,1,1,27,0,27,27,0,no
21,4,3,3,0,0,1,1,21,0,21,21,0,no
26,3,4,1,1,8,1,1,26,0,26,26,0,no
7,5,0,0,0,2,1,1,7,0,7,7,0,no
7,3,1,1,0,0,1,1,7,0,7,7,0,no
23,4,3,2,2,3,1,1,23,0,23,23,0,yes
10,5,2,2,1,0,1,1,10,0,10,10,0,no
7,5,0,0,0,0,1,1,7,0,7,7,0,no
8,3,1,1,1,0,2,1,9,1,8,5,0,yes
7,5,0,0,0,0,1,1,7,0,7,7,0,no
23,2,3,2,4,0,1,1,23,0,23,23,0,no
9,2,1,1,1,0,1,1,9,0,9,9,0,no
25,5,1,1,0,0,7,3,32,7,20,5.571429,1,no
3,1,0,0,0,0,3,2,2,7,5,3,1,no
12,3,1,1,0,2,5,2,14,2,8,3.2,1,no
4,1,0,0,0,0,0,0,0,0,0,0,0,no
3,3,0,0,0,0,1,1,0,26,26,26,0,no
4,5,0,0,1,1,3,2,37,33,33,23.333333,1,no
3,2,0,0,0,0,1,1,1,1,2,2,0,no
71,3,7,3,4,3,9,3,73,2,30,8.333333,1,yes
11,4,2,1,0,0,1,1,1,1,2,2,1,no
26,2,2,1,0,3,5,2,27,1,12,5.6,1,no
4,5,0,0,1,1,1,1,4,0,4,4,0,no
9,0,1,1,0,1,2,1,4,1,3,2.5,1,no
30,6,3,1,3,3,6,3,39,9,32,8,1,yes
7,1,1,1,0,1,1,1,1,0,1,1,0,no
3,0,0,0,0,0,0,0,0,0,0,0,0,no
3,0,0,0,0,0,0,0,0,0,0,0,0,no
3,0,0,0,0,0,0,0,0,0,0,0,0,no
3,0,0,0,0,0,0,0,0,0,0,0,0,no
3,0,0,0,0,0,0,0,0,0,0,0,0,no
3,0,0,0,0,0,1,1,1,1,2,2,0,no
3,0,0,0,0,0,0,0,0,0,0,0,0,no
3,0,0,0,0,0,0,0,0,0,0,0,0,no
19,2,2,1,1,2,9,3,34,52,38,9.555556,1,no
8,1,1,1,0,0,3,1,6,1,4,2.333333,1,no
10,2,1,1,0,1,1,1,1,1,2,2,0,no
12,0,2,1,1,1,2,1,13,1,12,7,0,no
36,1,5,2,2,0,6,2,32,3,25,5.833333,1,no
16,2,1,1,1,3,2,1,17,1,16,9,1,no
3,1,0,0,0,0,4,2,20,17,18,9.25,1,no
11,0,2,2,0,1,1,1,1,1,2,2,0,no
5,1,1,1,0,1,1,1,5,0,5,5,1,no
4,1,0,0,0,0,2,2,6,2,6,4,0,no
3,0,0,0,0,0,1,1,3,0,3,3,0,no
3,0,0,0,0,0,1,1,3,0,3,3,0,no
20,2,3,2,1,0,1,1,20,0,20,20,1,no
8,2,1,1,0,0,1,1,8,0,8,8,1,no
10,2,1,1,0,0,2,2,11,1,10,6,1,no
4,0,0,0,0,1,2,2,5,1,4,3,0,no
66,0,7,3,4,3,10,3,56,4,30,6,1,no
3,0,0,0,0,0,1,1,3,0,3,3,1,no
37,2,5,3,3,0,2,1,37,0,35,18.5,1,no
25,2,3,2,2,0,2,1,25,0,23,12.5,1,no
4,1,0,0,0,0,2,1,4,0,3,2,1,no
14,2,2,2,1,0,2,2,14,0,12,7,1,no
5,3,0,0,1,0,1,1,5,0,5,5,1,no
3,0,0,0,0,0,3,2,5,2,3,2.333333,1,no
3,0,0,0,0,0,1,1,3,0,3,3,0,no
3,0,0,0,0,0,1,1,3,0,3,3,0,no
3,0,0,0,1,0,3,2,5,2,3,2.333333,1,no
3,1,0,0,0,0,1,1,3,0,3,3,0,no
3,1,0,0,0,0,1,1,3,0,3,3,0,no
5,3,1,1,1,0,2,1,4,1,3,2.5,1,no
5,2,0,0,0,0,2,1,5,0,4,2.5,1,no
22,1,5,2,0,1,6,3,25,3,15,4.666667,1,no
11,2,2,2,2,0,2,2,12,1,11,6.5,1,no
14,1,2,1,0,0,1,1,14,0,14,14,1,no
6,4,0,0,0,1,2,1,6,0,5,3,1,no
8,3,0,0,1,1,1,1,8,0,8,8,0,no
9,4,0,0,1,1,1,1,9,0,9,9,0,no
8,3,0,0,1,1,1,1,8,0,8,8,0,no
4,0,0,0,0,0,2,2,2,1,2,1.5,0,no
19,1,1,1,0,3,1,1,19,0,19,19,1,no
12,5,1,0,0,0,1,1,12,0,12,12,0,no
5,2,0,0,1,0,0,0,0,0,0,0,0,no
4,1,0,0,0,0,1,1,1,0,1,1,1,no
3,0,0,0,0,0,1,1,3,0,3,3,0,no
7,0,1,1,0,0,1,1,7,0,7,7,0,no
3,1,0,0,1,0,0,0,0,0,0,0,0,no
3,0,0,0,0,0,1,1,3,0,3,3,1,no
3,0,0,0,0,0,0,0,0,0,0,0,0,no
3,0,0,0,0,0,1,1,3,0,3,3,1,no
3,0,0,0,0,0,1,1,3,0,3,3,1,no
8,1,1,1,0,1,0,0,0,0,0,0,0,no
3,0,0,0,0,0,1,1,3,0,3,3,0,no
3,0,0,0,0,0,1,1,3,0,3,3,1,no
3,0,0,0,0,0,1,1,3,0,3,3,0,no
3,0,0,0,0,0,1,1,3,0,3,3,0,no
3,0,0,0,0,0,1,1,3,0,3,3,0,no
3,0,0,0,0,0,2,1,2,2,2,2,1,no
24,1,6,3,0,6,2,1,24,0,23,12,1,no
3,0,0,0,0,0,2,1,4,1,3,2.5,1,no
6,1,1,1,0,0,1,1,6,0,6,6,1,no
3,0,0,0,0,0,2,1,4,1,3,2.5,1,no
15,1,3,2,0,5,1,1,15,0,15,15,1,no
52,2,8,2,3,11,7,3,57,5,43,8.857143,1,no
32,2,5,4,6,5,2,1,33,1,32,17,1,no
23,0,4,2,0,5,7,5,10,5,3,2.142857,1,no
19,0,4,2,0,3,5,4,24,5,21,5.8,1,no
3,1,0,0,0,0,1,1,3,0,3,3,1,no
3,1,0,0,0,0,1,1,3,0,3,3,1,no
3,1,0,0,0,0,1,1,3,0,3,3,1,no
3,1,0,0,0,0,1,1,3,0,3,3,0,no
5,0,0,0,0,1,1,1,5,0,5,5,1,no
8,6,0,0,0,0,2,2,9,1,9,5,0,no
9,4,0,0,0,0,1,1,9,0,9,9,0,no
5,0,0,0,0,0,3,2,4,2,2,2,1,no
4,0,0,0,0,0,1,1,4,0,4,4,0,no
8,2,1,1,0,0,1,1,8,0,8,8,0,yes
68,2,12,3,2,2,5,2,71,3,47,14.8,1,yes
9,2,2,2,0,0,2,2,10,1,9,5.5,1,yes
8,3,1,1,0,0,2,2,9,1,8,5,1,yes
8,2,0,0,0,0,2,1,4,1,3,2.5,1,no
13,4,3,2,1,1,2,2,6,1,5,3.5,1,no
16,0,2,2,2,0,1,1,16,0,16,16,0,no
10,0,2,2,0,0,2,1,6,0,4,3,1,no
18,0,2,2,0,1,7,2,15,2,8,2.428571,1,no
23,4,3,2,2,2,8,2,15,11,9,3.25,1,no
9,3,1,1,2,0,4,2,12,3,9,3.75,1,no
13,2,2,2,0,0,4,1,13,0,9,3.25,1,no
3,6,0,0,0,0,1,1,3,0,3,3,1,no
3,0,0,0,0,0,1,1,3,0,3,3,1,no
4,2,0,0,0,0,1,1,0,3,3,3,0,no
6,2,0,0,0,1,1,1,1,1,2,2,1,no
3,0,0,0,0,0,0,0,0,0,0,0,0,no
3,0,0,0,0,0,1,1,1,1,2,2,0,no
3,3,0,0,0,0,1,1,1,1,2,2,0,no
12,0,1,1,0,3,1,1,12,0,12,12,0,no
14,6,0,0,1,0,3,2,15,1,13,5.333333,1,no
6,1,1,1,0,0,1,1,6,0,6,6,0,no
3,0,0,0,0,0,1,1,3,0,3,3,1,no
3,0,0,0,0,0,0,0,0,0,0,0,0,no
36,0,7,4,1,6,9,2,33,15,11,5.333333,1,yes
3,0,0,0,0,0,0,0,0,0,0,0,0,no
17,5,4,2,1,2,9,3,12,21,9,3.666667,1,no
4,2,0,0,0,0,5,2,8,4,4,2.4,1,no
3,0,0,0,0,0,0,0,0,0,0,0,0,no
18,1,3,3,2,3,6,2,18,3,10,3.5,1,no
16,0,4,3,0,2,4,2,17,1,7,4.5,1,no
7,3,0,0,1,0,4,1,10,3,4,3.25,1,no
16,2,2,1,0,1,2,1,32,0,16,16,1,no
10,1,2,2,0,3,2,1,20,0,10,10,1,no
7,1,1,1,0,1,2,1,14,0,7,7,1,no
9,0,2,2,0,2,2,1,18,0,9,9,1,no
3,0,0,0,0,0,1,1,3,0,3,3,0,no
22,3,5,2,1,1,5,1,39,2,21,8.2,1,no
13,1,2,1,0,2,3,1,27,1,13,9.333333,1,no
3,0,0,0,0,0,2,1,6,0,3,3,1,no
23,0,3,2,1,3,6,1,29,6,15,5.833333,1,no
3,0,0,0,0,0,1,1,3,0,3,3,0,no
4,2,0,0,0,0,2,1,8,0,4,4,1,no
5,0,0,0,0,0,1,1,5,0,5,5,0,no
11,1,2,2,0,3,1,1,11,0,11,11,0,no
3,1,0,0,0,0,1,1,3,0,3,3,0,no
3,1,0,0,0,0,1,1,3,0,3,3,0,no
22,1,3,2,1,2,1,1,22,0,22,22,0,no
33,3,5,4,0,9,1,1,33,0,33,33,0,no
31,2,5,3,1,8,2,2,32,1,31,16.5,1,no
21,2,3,2,0,3,1,1,21,0,21,21,0,no
17,1,2,1,0,3,1,1,17,0,17,17,0,no
8,4,1,1,0,0,1,1,8,0,8,8,0,no
21,3,4,2,0,3,1,1,21,0,21,21,0,no
17,4,3,2,1,3,1,1,17,0,17,17,0,no
2,0,0,0,0,0,1,1,2,0,2,2,0,no
5,2,0,0,0,0,1,1,5,0,5,5,0,no
7,1,1,1,0,1,1,1,7,0,7,7,0,no
3,0,0,0,0,0,1,1,3,0,3,3,0,no
3,0,0,0,0,0,1,1,3,0,3,3,0,no
3,0,0,0,0,0,1,1,3,0,3,3,0,no
3,0,0,0,0,0,1,1,3,0,3,3,0,no
3,0,0,0,0,0,1,1,3,0,3,3,0,no
3,0,0,0,0,0,1,1,3,0,3,3,0,no
3,1,0,0,0,0,1,1,3,0,3,3,0,no
3,1,0,0,0,0,1,1,3,0,3,3,0,no
3,1,0,0,0,0,1,1,3,0,3,3,0,no
3,0,0,0,0,0,1,1,3,0,3,3,0,no
2,0,0,0,0,0,1,1,2,0,2,2,0,no
7,1,1,1,0,2,1,1,7,0,7,7,0,no
0,1,0,0,1,0,1,1,0,0,0,0,0,no
0,0,0,0,2,0,1,1,0,0,0,0,0,no
2,1,0,0,0,0,1,1,2,0,2,2,0,no
3,0,0,0,0,0,1,1,3,0,3,3,0,no
0,2,0,0,0,0,1,1,0,0,0,0,0,no
6,2,0,0,0,0,1,1,6,0,6,6,0,no
12,1,2,2,0,4,1,1,12,0,12,12,0,no
17,2,4,2,0,4,1,1,17,0,17,17,0,no
7,0,1,1,0,2,1,1,7,0,7,7,0,no
3,0,0,0,0,0,1,1,3,0,3,3,0,no
4,1,0,0,0,0,1,1,4,0,4,4,0,no
6,1,2,1,0,0,1,1,6,0,6,6,0,no
3,2,0,0,0,0,1,1,3,0,3,3,0,no
7,2,0,0,0,0,4,2,10,3,7,3.25,1,no
5,0,1,1,0,1,5,2,9,4,5,2.6,1,no
5,0,1,1,0,1,2,1,5,0,3,2.5,1,no
33,5,7,3,2,3,7,3,37,4,25,5.857143,1,yes
0,2,0,0,1,0,1,1,0,0,0,0,1,no
6,6,1,1,0,0,1,1,6,0,6,6,0,no
3,1,0,0,0,0,2,1,4,1,3,2.5,1,no
4,3,0,0,1,0,1,1,4,0,4,4,0,no
3,3,0,0,0,0,1,1,3,0,3,3,0,no
4,5,0,0,1,0,2,2,5,1,4,3,1,no
4,2,0,0,0,0,2,1,4,0,3,2,0,no
3,0,0,0,0,0,2,1,3,0,2,1.5,0,no
19,2,2,2,1,0,2,1,20,1,19,10.5,1,no
22,2,6,2,0,1,1,1,22,0,22,22,0,no
3,0,0,0,0,0,1,1,3,0,3,3,0,no
3,1,0,0,0,0,1,1,3,0,3,3,0,no
7,0,1,1,0,1,1,1,7,0,7,7,0,no
5,3,0,0,0,0,1,1,5,0,5,5,0,no
12,0,0,0,0,1,1,1,12,0,12,12,0,no
3,0,0,0,0,0,1,1,3,0,3,3,1,no
7,1,1,1,0,2,1,1,7,0,7,7,0,no
3,2,0,0,0,0,2,1,4,1,3,2.5,0,no
4,1,0,0,0,0,1,1,4,0,4,4,0,no
3,1,0,0,0,0,1,1,3,0,3,3,0,no
4,0,0,0,0,0,1,1,4,0,4,4,1,no
16,1,4,3,0,2,2,1,17,1,16,9,1,no
9,1,2,2,0,1,0,0,0,0,0,0,0,no
4,0,0,0,0,0,0,0,0,0,0,0,0,no
3,0,0,0,0,0,0,0,0,0,0,0,0,no
3,0,0,0,0,0,0,0,0,0,0,0,0,no
3,0,0,0,0,0,0,0,0,0,0,0,0,no
4,0,0,0,0,0,0,0,0,0,0,0,0,no
3,1,0,0,0,0,0,0,0,0,0,0,0,no
3,1,0,0,0,0,0,0,0,0,0,0,0,no
3,1,0,0,0,0,0,0,0,0,0,0,0,no
3,0,0,0,0,0,0,0,0,0,0,0,0,no
4,0,0,0,0,0,1,1,4,0,4,4,0,no
3,0,0,0,0,0,1,1,3,0,3,3,0,no
3,0,0,0,0,0,1,1,3,0,3,3,1,no
3,0,0,0,0,0,1,1,3,0,3,3,0,no
3,0,0,0,0,0,1,1,3,0,3,3,0,no
3,0,0,0,0,0,1,1,3,0,3,3,0,no
3,0,0,0,0,0,1,1,3,0,3,3,1,no
3,0,0,0,0,0,1,1,3,0,3,3,1,no
3,1,0,0,0,0,1,1,3,0,3,3,0,no
3,1,0,0,0,0,1,1,3,0,3,3,0,no
4,1,0,0,0,1,1,1,4,0,4,4,0,no
3,1,0,0,0,0,1,1,3,0,3,3,0,no
3,1,0,0,0,0,1,1,3,0,3,3,0,no
3,1,0,0,0,0,1,1,3,0,3,3,1,no
3,1,0,0,0,0,1,1,3,0,3,3,0,no
3,1,0,0,0,0,1,1,3,0,3,3,0,no
3,1,0,0,0,0,1,1,3,0,3,3,0,no
3,1,0,0,0,0,1,1,3,0,3,3,1,no
3,0,0,0,0,0,1,1,3,0,3,3,0,no
4,1,0,0,0,0,1,1,4,0,4,4,0,no
3,0,0,0,0,0,1,1,3,0,3,3,0,no
3,0,0,0,0,0,1,1,3,0,3,3,0,no
3,0,0,0,0,0,2,2,4,1,3,2.5,1,no
3,0,0,0,0,0,1,1,3,0,3,3,0,no
3,0,0,0,0,0,1,1,3,0,3,3,0,no
3,0,0,0,0,0,1,1,3,0,3,3,1,no
3,0,0,0,0,0,1,1,3,0,3,3,0,no
3,0,0,0,0,0,1,1,3,0,3,3,0,no
3,0,0,0,0,0,2,1,6,0,3,3,1,no
3,0,0,0,0,0,1,1,3,0,3,3,0,no
3,0,0,0,0,0,1,1,3,0,3,3,0,no
7,0,1,1,1,1,3,2,8,1,4,3,1,no
3,0,0,0,0,0,1,1,3,0,3,3,0,no
4,1,0,0,0,0,1,1,4,0,4,4,0,no
4,1,0,0,0,0,2,1,5,1,4,3,1,no
4,1,0,0,0,0,3,2,6,2,4,2.666667,1,no
4,1,0,0,0,0,2,1,5,1,4,3,1,no
4,1,0,0,0,0,1,1,4,0,4,4,0,no
4,1,0,0,0,0,1,1,4,0,4,4,1,no
4,1,0,0,0,0,1,1,4,0,4,4,0,no
4,1,0,0,0,0,1,1,4,0,4,4,0,no
4,1,0,0,0,0,2,1,8,0,4,4,1,no
4,1,0,0,0,0,2,1,5,1,4,3,1,no
4,1,0,0,0,0,1,1,4,0,4,4,0,no
4,1,0,0,0,0,2,1,5,1,4,3,1,no
4,1,0,0,0,0,3,1,6,2,4,2.666667,1,no
0,0,0,0,1,0,1,1,0,0,0,0,0,no
0,1,0,0,1,0,1,1,0,0,0,0,0,no
3,0,0,0,0,0,1,1,3,0,3,3,0,no
4,1,0,0,0,0,1,1,4,0,4,4,0,no
3,0,0,0,0,0,1,1,3,0,3,3,0,no
3,0,0,0,0,0,2,1,4,1,3,2.5,1,no
3,0,0,0,0,0,1,1,3,0,3,3,0,no
3,0,0,0,0,0,1,1,3,0,3,3,0,no
3,0,0,0,0,0,1,1,3,0,3,3,0,no
3,0,0,0,0,0,1,1,3,0,3,3,0,no
3,0,0,0,0,0,1,1,3,0,3,3,0,no
3,0,0,0,0,0,1,1,3,0,3,3,0,no
3,0,0,0,0,0,1,1,3,0,3,3,0,no
3,0,0,0,0,0,1,1,3,0,3,3,0,no
3,0,0,0,0,0,1,1,3,0,3,3,0,no
3,0,0,0,0,0,1,1,3,0,3,3,0,no
6,0,1,1,1,0,1,1,6,0,6,6,0,no
11,0,2,1,1,3,1,1,11,0,11,11,0,no
3,0,0,0,0,0,1,1,3,0,3,3,0,no
3,0,0,0,0,0,1,1,3,0,3,3,0,no
7,0,1,1,0,1,1,1,7,0,7,7,0,no
3,0,0,0,0,0,1,1,3,0,3,3,0,no
3,0,0,0,0,0,1,1,3,0,3,3,0,no
3,0,0,0,0,0,1,1,3,0,3,3,0,no
3,0,0,0,0,0,1,1,3,0,3,3,0,no
3,0,0,0,0,0,1,1,3,0,3,3,0,no
3,0,0,0,0,0,1,1,3,0,3,3,0,no
7,0,1,1,0,1,2,2,8,1,7,4.5,1,no
8,0,1,1,0,3,2,2,11,3,11,7,1,no
3,0,0,0,0,0,1,1,3,0,3,3,0,no
3,0,0,0,0,0,1,1,3,0,3,3,0,no
3,0,0,0,0,0,1,1,3,0,3,3,0,no
3,0,0,0,0,0,1,1,3,0,3,3,0,no
3,0,0,0,0,0,1,1,3,0,3,3,0,no
3,0,0,0,0,0,1,1,3,0,3,3,0,no
3,0,0,0,0,0,1,1,3,0,3,3,0,no
3,0,0,0,0,0,1,1,3,0,3,3,0,no
3,0,0,0,0,0,1,1,3,0,3,3,0,no
3,0,0,0,0,0,1,1,3,0,3,3,0,no
3,0,0,0,0,0,1,1,3,0,3,3,0,no
3,0,0,0,0,0,1,1,3,0,3,3,0,no
3,0,0,0,0,0,1,1,3,0,3,3,0,no
3,0,0,0,0,0,1,1,3,0,3,3,0,no
3,0,0,0,0,0,1,1,3,0,3,3,0,no
3,0,0,0,0,0,1,1,3,0,3,3,0,no
3,0,0,0,0,0,1,1,3,0,3,3,0,no
7,0,1,1,1,1,3,2,8,1,4,3,1,no
3,0,0,0,0,0,1,1,3,0,3,3,0,no
3,0,0,0,0,0,1,1,3,0,3,3,0,no
3,0,0,0,0,0,1,1,3,0,3,3,0,no
3,0,0,0,0,0,1,1,3,0,3,3,0,no
3,0,0,0,0,0,1,1,3,0,3,3,0,no
4,1,0,0,0,0,1,1,4,0,4,4,0,no
3,1,0,0,0,0,1,1,3,0,3,3,0,no
4,1,0,0,0,0,1,1,4,0,4,4,0,no
4,1,0,0,0,0,2,1,5,1,4,3,1,no
4,1,0,0,0,0,1,1,4,0,4,4,0,no
4,1,0,0,0,0,1,1,4,0,4,4,0,no
4,1,0,0,0,0,1,1,4,0,4,4,0,no
4,1,0,0,0,0,1,1,4,0,4,4,0,no
4,1,0,0,0,0,1,1,4,0,4,4,0,no
4,1,0,0,0,0,1,1,4,0,4,4,0,no
4,1,0,0,0,0,2,1,5,1,4,3,1,no
4,1,0,0,0,0,2,1,5,1,4,3,1,no
4,1,0,0,0,0,2,1,5,1,4,3,1,no
4,1,0,0,0,0,1,1,4,0,4,4,0,no
4,1,0,0,0,0,1,1,4,0,4,4,0,no
4,1,0,0,0,0,2,1,5,1,4,3,1,no
4,1,0,0,0,0,1,1,4,0,4,4,0,no
4,1,0,0,0,0,2,1,8,0,4,4,0,no
7,1,1,1,0,0,3,2,9,2,7,3.666667,1,no
4,1,0,0,0,0,1,1,4,0,4,4,0,no
4,1,0,0,0,0,1,1,4,0,4,4,0,no
4,1,0,0,0,0,1,1,4,0,4,4,0,no
4,1,0,0,0,0,2,1,5,1,4,3,1,no
4,1,0,0,0,0,1,1,4,0,4,4,0,no
4,1,0,0,0,0,1,1,4,0,4,4,0,no
4,1,0,0,0,0,1,1,4,0,4,4,0,no
4,1,0,0,0,0,1,1,4,0,4,4,0,no
4,1,0,0,0,0,1,1,4,0,4,4,0,no
4,1,0,0,0,0,1,1,4,0,4,4,0,no
4,1,0,0,0,0,1,1,4,0,4,4,1,no
3,1,0,0,0,0,1,1,3,0,3,3,0,no
4,1,0,0,0,0,1,1,4,0,4,4,1,no
4,1,0,0,0,0,1,1,4,0,4,4,1,no
4,1,0,0,0,0,1,1,4,0,4,4,0,no
4,1,0,0,0,0,1,1,4,0,4,4,0,no
4,1,0,0,0,0,2,1,5,1,4,3,1,no
4,1,0,0,0,0,1,1,4,0,4,4,0,no
4,1,0,0,0,0,1,1,4,0,4,4,0,no
4,1,0,0,0,0,2,1,5,1,4,3,1,no
4,1,0,0,0,0,3,1,6,2,4,2.666667,1,no
3,0,0,0,0,0,1,1,3,0,3,3,0,no
3,0,0,0,0,0,1,1,3,0,3,3,0,no
15,2,2,1,2,2,2,1,16,1,15,8.5,0,no
9,3,2,2,1,2,1,1,9,0,9,9,0,no
9,2,0,0,0,1,3,2,10,1,6,3.666667,0,no
21,6,3,1,1,3,3,2,23,2,22,8.333333,1,no
7,0,1,1,0,0,2,1,7,0,5,3.5,1,no
0,1,0,0,0,0,1,1,0,0,0,0,0,no
0,1,0,0,0,0,1,1,0,0,0,0,0,no
6,1,1,1,1,0,5,3,10,4,6,2.8,1,no
15,2,3,2,1,2,3,2,17,2,15,6.333333,1,no
33,1,7,2,2,3,1,1,33,0,33,33,0,no
3,2,0,0,0,0,2,1,28,25,28,26.5,0,no
28,3,4,2,2,1,1,1,28,0,28,28,0,no
19,2,3,3,0,3,1,1,19,0,19,19,0,no
37,3,6,3,0,3,2,2,37,0,31,18.5,0,no
13,2,3,2,0,1,1,1,13,0,13,13,0,no
22,3,3,2,1,2,3,2,24,2,22,8.666667,1,no
23,5,4,2,2,1,1,1,23,0,23,23,0,no
16,2,3,1,1,3,1,1,16,0,16,16,0,no
11,4,2,2,1,0,2,2,12,1,11,6.5,1,no
18,3,3,3,0,2,2,1,18,0,12,9,0,no
3,1,0,0,0,0,1,1,3,0,3,3,0,no
24,2,5,3,1,3,1,1,24,0,24,24,0,no
8,0,1,1,0,0,1,1,8,0,8,8,0,no
5,0,1,1,0,1,1,1,5,0,5,5,0,no
4,2,0,0,0,0,3,3,6,2,4,2.666667,0,no
3,5,0,0,0,0,1,1,3,0,3,3,1,no
21,2,2,2,2,2,3,1,23,2,21,8.333333,1,no
10,1,1,1,0,2,1,1,10,0,10,10,1,no
5,1,0,0,0,1,1,1,5,0,5,5,1,no
32,0,3,1,0,3,2,2,32,0,23,16,1,no
4,0,0,0,0,0,2,2,4,0,3,2,1,no
7,0,1,1,0,0,2,2,13,6,13,9.5,1,no
13,0,2,1,0,1,1,1,13,0,13,13,1,no
15,4,2,2,2,1,4,1,16,1,7,4.25,1,no
12,2,2,2,0,4,1,1,12,0,12,12,0,no
3,0,0,0,0,0,1,1,3,0,3,3,0,no
8,3,1,1,0,0,1,1,8,0,8,8,0,no
3,0,0,0,0,0,1,1,3,0,3,3,0,no
3,0,0,0,0,0,1,1,3,0,3,3,0,no
2,0,0,0,0,0,1,1,2,0,2,2,0,no
4,2,0,0,0,0,4,2,9,5,8,3.5,0,no
19,5,1,1,0,2,1,1,19,0,19,19,1,no
24,6,2,1,2,1,1,1,24,0,24,24,1,no
50,2,4,1,4,4,4,2,54,4,52,14.5,1,no
3,2,0,0,0,0,1,1,3,0,3,3,1,no
7,1,1,1,0,1,2,2,11,8,11,9.5,1,no
3,1,0,0,0,0,2,2,11,8,11,9.5,1,no
10,1,1,1,0,2,1,1,10,0,10,10,1,no
3,1,0,0,0,0,3,3,7,4,6,3.666667,1,no
3,0,0,0,0,0,1,1,3,0,3,3,0,no
3,2,0,0,0,0,1,1,3,0,3,3,1,no
3,1,0,0,0,0,1,1,3,0,3,3,1,no
19,3,2,1,2,1,1,1,19,0,19,19,1,no
9,4,1,1,1,1,1,1,9,0,9,9,1,no
14,2,1,1,0,2,1,1,14,0,14,14,1,no
4,2,0,0,0,1,1,1,4,0,4,4,1,no
45,4,4,1,4,4,6,2,49,4,44,8.833333,1,no
12,0,1,1,1,0,2,2,14,2,14,8,1,no
7,3,1,1,1,0,2,2,9,2,9,5.5,1,no
9,4,1,1,1,0,4,1,10,1,7,2.75,1,no
3,1,0,0,0,0,1,1,3,0,3,3,1,no
32,6,3,1,2,7,1,1,32,0,32,32,1,no
19,3,2,1,1,3,1,1,19,0,19,19,1,no
3,0,0,0,1,0,1,1,3,0,3,3,1,no
16,2,2,1,0,4,3,2,18,2,16,6.666667,1,no
4,0,0,0,0,0,3,2,14,10,13,8,1,no
8,0,1,1,0,1,2,2,8,0,6,4,1,no
21,0,4,2,0,1,2,2,21,0,20,10.5,1,no
28,0,7,4,0,1,2,1,28,0,26,14,1,no
12,2,2,2,0,4,1,1,12,0,12,12,0,no
3,0,0,0,0,0,1,1,3,0,3,3,0,no
8,3,1,1,0,0,1,1,8,0,8,8,0,no
3,0,0,0,0,0,1,1,3,0,3,3,0,no
3,0,0,0,0,0,1,1,3,0,3,3,0,no
2,0,0,0,0,0,1,1,2,0,2,2,0,no
3,2,0,0,0,0,2,1,4,1,4,2.5,1,no
5,3,0,0,0,0,1,1,5,0,5,5,0,no
4,2,0,0,0,1,2,2,5,1,4,3,0,no
10,1,2,1,0,1,2,1,11,1,10,6,1,no
3,0,0,0,0,0,1,1,3,0,3,3,0,no
3,0,0,0,0,0,1,1,3,0,3,3,0,no
3,0,0,0,0,0,2,1,4,1,3,2.5,1,no
3,0,0,0,0,0,1,1,3,0,3,3,1,no
3,0,0,0,0,0,2,1,4,1,3,2.5,0,no
23,1,4,2,2,6,3,2,26,3,25,9.666667,1,no
15,2,2,2,0,3,2,2,16,1,15,8.5,1,no
5,0,0,0,0,1,3,2,9,4,8,4.333333,1,no
4,2,0,0,0,1,2,2,5,1,4,3,1,no
5,0,0,0,0,1,2,1,6,1,5,3.5,1,no
0,5,0,0,1,0,1,1,0,0,0,0,1,no
0,2,0,0,1,0,1,1,0,0,0,0,0,no
0,0,0,0,1,0,1,1,0,0,0,0,0,no
0,2,0,0,1,0,1,1,0,0,0,0,0,no
0,2,0,0,1,0,1,1,0,0,0,0,0,no
0,3,0,0,1,0,1,1,0,0,0,0,0,no
0,2,0,0,1,0,1,1,0,0,0,0,0,no
0,3,0,0,1,0,1,1,0,0,0,0,0,no
3,1,0,0,0,0,2,2,4,1,3,2.5,1,no
3,0,0,0,0,0,2,2,4,1,3,2.5,1,no
3,0,0,0,0,0,1,1,3,0,3,3,0,no
3,0,0,0,0,0,1,1,3,0,3,3,1,no
3,0,0,0,0,0,2,2,4,1,3,2.5,1,no
0,0,0,0,1,0,1,1,0,0,0,0,0,no
0,0,0,0,1,0,1,1,0,0,0,0,0,no
31,3,6,4,1,5,2,1,31,0,30,15.5,1,no
11,2,1,1,0,2,1,1,11,0,11,11,0,no
0,0,0,0,0,0,1,1,0,0,0,0,0,no
0,3,0,0,1,0,1,1,0,0,0,0,0,no
0,0,0,0,0,0,1,1,0,0,0,0,0,no
53,2,12,3,1,6,3,2,84,31,83,38.333333,1,no
0,0,0,0,0,0,1,1,0,0,0,0,0,no
0,0,0,0,0,0,1,1,0,0,0,0,0,no
0,0,0,0,0,0,1,1,0,0,0,0,0,no
0,0,0,0,0,0,1,1,0,0,0,0,0,no
0,0,0,0,0,0,1,1,0,0,0,0,0,no
0,0,0,0,0,0,1,1,0,0,0,0,0,no
0,0,0,0,0,0,1,1,0,0,0,0,0,no
0,1,0,0,0,0,1,1,0,0,0,0,0,no
0,2,0,0,0,0,1,1,0,0,0,0,0,no
0,1,0,0,0,0,1,1,0,0,0,0,0,no
0,0,0,0,0,0,1,1,0,0,0,0,0,no
0,1,0,0,0,0,1,1,0,0,0,0,0,no
12,1,2,2,1,2,1,1,12,0,12,12,0,no
3,0,0,0,0,0,1,1,3,0,3,3,0,no
16,3,2,1,1,2,1,1,16,0,16,16,0,no
3,1,1,0,0,0,1,1,3,0,3,3,0,no
3,1,1,0,0,0,1,1,3,0,3,3,0,no
3,0,0,0,0,0,1,1,3,0,3,3,0,no
3,0,0,0,0,0,1,1,3,0,3,3,0,no
5,4,2,0,0,1,1,1,5,0,5,5,0,no
3,0,0,0,0,0,1,1,3,0,3,3,0,no
3,1,0,0,0,0,1,1,3,0,3,3,0,no
30,6,3,1,2,5,1,1,30,0,30,30,0,no
18,3,2,1,1,2,1,1,18,0,18,18,0,no
3,0,0,0,1,0,1,1,3,0,3,3,0,no
15,3,1,1,2,1,3,2,15,0,9,5,0,no
8,6,0,0,0,0,1,1,8,0,8,8,0,no
17,5,2,1,0,1,1,1,17,0,17,17,0,no
8,0,1,1,0,0,2,2,9,1,8,5,0,no
48,2,5,1,3,3,2,1,49,1,48,25,1,no
43,6,6,2,2,6,1,1,43,0,43,43,0,no
10,1,1,1,0,2,1,1,10,0,10,10,0,no
3,0,0,0,0,0,1,1,3,0,3,3,0,no
28,2,3,1,3,3,1,1,28,0,28,28,0,no
2,2,0,0,0,0,1,1,2,0,2,2,0,no
18,3,2,2,0,2,1,1,18,0,18,18,0,no
2,2,0,0,0,0,1,1,2,0,2,2,0,no
26,3,3,3,1,4,1,1,26,0,26,26,0,no
17,3,3,3,1,1,1,1,17,0,17,17,0,no
21,3,3,1,3,1,1,1,21,0,21,21,0,no
12,3,2,2,0,1,1,1,12,0,12,12,0,no
11,3,2,1,0,0,1,1,11,0,11,11,0,no
33,3,5,2,2,5,1,1,33,0,33,33,0,no
8,3,1,1,1,0,1,1,8,0,8,8,0,no
3,0,0,0,0,0,1,1,3,0,3,3,0,no
43,4,5,1,3,3,1,1,43,0,43,43,0,no
7,3,1,1,1,0,1,1,7,0,7,7,0,no
13,3,2,1,0,0,1,1,13,0,13,13,0,no
14,0,1,1,0,1,1,1,14,0,14,14,0,no
13,0,2,1,0,0,2,2,14,1,13,7.5,1,no
13,0,2,2,0,2,2,2,14,1,13,7.5,1,no
8,3,1,1,0,0,1,1,8,0,8,8,0,no
8,0,2,2,0,0,1,1,8,0,8,8,0,no
6,2,0,0,1,0,1,1,6,0,6,6,0,no
3,0,0,0,0,0,1,1,3,0,3,3,0,no
3,0,0,0,0,0,1,1,3,0,3,3,0,no
15,2,1,1,1,1,6,3,19,4,9,3.833333,0,no
44,0,11,4,4,4,2,1,45,1,44,23,0,no
15,0,4,2,1,1,2,1,16,1,15,8.5,0,no
17,0,3,1,0,1,5,3,19,2,13,4.2,1,no
16,0,3,1,0,0,3,2,17,1,13,6,0,no
8,1,1,1,0,1,1,1,8,0,8,8,0,no
26,0,5,3,0,3,4,1,28,2,25,7.5,0,no
53,3,10,4,3,9,4,1,55,2,43,14.25,0,no
7,2,0,0,0,4,1,1,7,0,7,7,0,no
3,2,0,0,0,0,1,1,3,0,3,3,0,no
3,1,0,0,0,0,2,1,4,1,3,2.5,0,no
15,0,3,2,1,0,2,2,16,1,15,8.5,0,no
31,1,8,5,4,6,2,1,31,0,19,15.5,0,no
41,2,9,5,3,5,4,1,44,3,42,11.75,0,no
22,1,4,2,0,1,2,2,23,1,22,12,0,no
15,0,2,1,0,1,1,1,15,0,15,15,0,no
16,1,4,2,1,1,2,1,17,1,16,9,0,no
7,0,1,1,0,1,1,1,7,0,7,7,0,no
2,1,0,0,0,0,3,1,7,2,5,3,0,no
5,1,1,1,0,0,3,1,7,2,5,3,0,no
5,1,1,1,0,0,3,1,7,2,5,3,0,no
4,2,0,0,0,0,1,1,4,0,4,4,0,no
3,0,0,0,0,0,1,1,3,0,3,3,0,no
3,0,0,0,0,0,1,1,3,0,3,3,0,no
3,1,0,0,0,0,1,1,3,0,3,3,0,no
21,1,6,3,0,2,2,1,21,0,17,10.5,1,no
3,0,0,0,0,0,1,1,3,0,3,3,0,no
4,1,0,0,0,0,1,1,4,0,4,4,0,no
3,0,0,0,0,0,1,1,3,0,3,3,0,no
2,0,0,0,0,0,1,1,2,0,2,2,0,no
8,1,1,1,0,1,1,1,8,0,8,8,0,no
3,1,0,0,0,0,1,1,3,0,3,3,0,no
3,1,0,0,0,0,1,1,3,0,3,3,0,no
3,0,0,0,0,0,1,1,3,0,3,3,0,no
3,0,0,0,0,0,1,1,3,0,3,3,0,no
2,2,0,0,0,0,1,1,2,0,2,2,0,no
3,0,0,0,0,0,1,1,3,0,3,3,0,no
5,3,0,0,0,0,1,1,5,0,5,5,1,no
13,3,1,1,0,1,1,1,13,0,13,13,0,no
2,0,0,0,0,0,1,1,2,0,2,2,0,no
3,0,0,0,0,0,1,1,3,0,3,3,0,no
6,1,1,1,0,0,1,1,6,0,6,6,0,no
13,1,1,1,0,6,1,1,13,0,13,13,0,no
8,0,1,1,0,1,1,1,8,0,8,8,0,no
7,2,0,0,1,2,2,2,7,0,5,3.5,0,no
23,3,6,2,0,2,1,1,23,0,23,23,0,no
2,0,0,0,0,0,1,1,2,0,2,2,0,no
3,1,0,0,0,0,1,1,3,0,3,3,0,no
8,3,0,0,0,0,1,1,8,0,8,8,0,no
8,4,0,0,0,0,1,1,8,0,8,8,0,no
3,0,0,0,0,0,1,1,3,0,3,3,0,no
3,2,0,0,0,0,1,1,3,0,3,3,0,no
3,3,0,0,0,0,1,1,3,0,3,3,0,no
3,7,0,0,0,0,1,1,3,0,3,3,0,no
39,6,10,3,1,3,1,1,39,0,39,39,0,no
9,8,0,0,0,1,1,1,9,0,9,9,0,no
21,3,4,2,0,1,1,1,21,0,21,21,0,no
13,5,1,1,0,1,1,1,13,0,13,13,0,no
11,2,2,1,0,1,1,1,11,0,11,11,0,no
13,4,1,1,0,1,1,1,13,0,13,13,0,no
12,4,3,1,0,2,1,1,12,0,12,12,0,no
3,0,0,0,0,0,1,1,4,0,4,4,0,no
3,0,0,0,0,0,1,1,4,0,4,4,0,no
8,0,1,1,0,1,1,1,4,0,4,4,0,no
8,0,1,1,0,1,1,1,4,0,4,4,0,no
4,0,0,0,0,1,1,1,4,0,4,4,0,no
3,1,0,0,0,0,1,1,3,0,3,3,0,no
3,1,0,0,0,0,1,1,3,0,3,3,0,no
21,1,6,3,0,2,1,1,21,0,21,21,0,no
7,1,1,1,2,1,1,1,7,0,7,7,0,no
3,0,0,0,0,0,1,1,3,0,3,3,0,no
4,0,0,0,0,0,1,1,4,0,4,4,0,no
3,0,0,0,0,0,1,1,3,0,3,3,0,no
4,2,0,0,0,0,1,1,4,0,4,4,0,no
4,2,0,0,0,0,1,1,4,0,4,4,0,no
4,3,0,0,0,0,1,1,4,0,4,4,0,no
3,1,0,0,0,0,1,1,3,0,3,3,0,no
3,2,0,0,0,0,1,1,3,0,3,3,0,no
21,3,9,1,0,0,1,1,21,0,21,21,0,no
3,0,0,0,0,0,1,1,3,0,3,3,0,no
3,1,0,0,0,0,1,1,3,0,3,3,0,no
3,2,0,0,0,0,1,1,3,0,3,3,0,no
4,2,0,0,1,0,1,1,4,0,4,4,0,no
3,1,0,0,0,0,1,1,3,0,3,3,0,no
3,0,0,0,0,0,1,1,3,0,3,3,0,no
3,0,0,0,0,0,1,1,3,0,3,3,0,no
3,1,0,0,0,0,1,1,3,0,3,3,0,no
3,2,0,0,0,0,1,1,3,0,3,3,0,no
3,1,0,0,0,0,1,1,3,0,3,3,0,no
3,2,0,0,0,0,1,1,3,0,3,3,0,no
3,1,0,0,0,0,1,1,3,0,3,3,0,no
3,2,0,0,0,0,1,1,3,0,3,3,0,no
3,1,0,0,0,0,1,1,3,0,3,3,0,no
3,2,0,0,0,0,1,1,3,0,3,3,0,no
3,1,0,0,0,0,1,1,3,0,3,3,0,no
3,2,0,0,0,0,1,1,3,0,3,3,0,no
3,1,0,0,0,0,1,1,3,0,3,3,0,no
3,2,0,0,0,0,1,1,3,0,3,3,0,no
3,1,0,0,0,0,1,1,3,0,3,3,0,no
3,2,0,0,0,0,1,1,3,0,3,3,0,no
0,0,0,0,1,0,1,1,0,0,0,0,0,no
0,1,0,0,1,0,1,1,0,0,0,0,0,no
0,1,0,0,1,0,1,1,0,0,0,0,0,no
0,0,0,0,1,0,1,1,0,0,0,0,0,no
0,0,0,0,1,0,1,1,0,0,0,0,0,no
0,2,0,0,1,0,1,1,0,0,0,0,0,no
0,3,0,0,1,0,1,1,0,0,0,0,0,no
0,3,0,0,1,0,1,1,0,0,0,0,0,no
0,0,0,0,1,0,1,1,0,0,0,0,0,no
0,1,0,0,1,0,1,1,0,0,0,0,0,no
3,3,0,0,0,0,1,1,3,0,3,3,0,no
2,0,0,0,0,0,1,1,2,0,2,2,0,no
3,0,0,0,0,0,1,1,3,0,3,3,0,no
3,1,0,0,0,0,1,1,3,0,3,3,0,no
3,1,0,0,0,0,1,1,3,0,3,3,0,no
3,2,0,0,0,0,1,1,3,0,3,3,0,no
3,1,0,0,0,0,1,1,3,0,3,3,0,no
7,1,1,1,2,0,1,1,7,0,7,7,0,no
0,7,0,0,1,0,1,1,0,0,0,0,0,no
0,8,0,0,1,0,1,1,0,0,0,0,0,no
0,0,0,0,1,0,1,1,0,0,0,0,0,no
0,3,0,0,1,0,1,1,0,0,0,0,0,no
0,4,0,0,1,0,1,1,0,0,0,0,0,no
0,0,0,0,1,0,1,1,0,0,0,0,0,no
0,2,0,0,1,0,1,1,0,0,0,0,0,no
0,3,0,0,1,0,1,1,0,0,0,0,0,no
0,5,0,0,1,0,1,1,0,0,0,0,0,no
0,4,0,0,1,0,1,1,0,0,0,0,0,no
4,2,0,0,0,0,1,1,4,0,4,4,0,no
3,0,0,0,0,0,1,1,3,0,3,3,0,no
3,0,0,0,0,0,1,1,3,0,3,3,0,no
3,1,0,0,0,0,1,1,3,0,3,3,0,no
3,1,0,0,0,0,1,1,3,0,3,3,0,no
30,2,4,2,4,9,1,1,30,0,30,30,0,no
3,1,0,0,0,0,1,1,3,0,3,3,0,no
10,3,2,1,0,0,1,1,10,0,10,10,0,no
6,0,1,1,0,0,1,1,6,0,6,6,0,no
5,3,0,0,0,0,1,1,5,0,5,5,0,no
7,0,1,1,0,0,1,1,7,0,7,7,0,no
3,0,0,0,0,0,1,1,3,0,3,3,0,no
3,1,0,0,0,0,1,1,3,0,3,3,0,no
4,0,0,0,0,0,1,1,4,0,4,4,0,no
17,1,4,2,0,4,1,1,17,0,17,17,0,no
3,1,0,0,0,0,1,1,3,0,3,3,0,no
3,0,0,0,0,0,1,1,3,0,3,3,0,no
3,0,0,0,0,0,1,1,3,0,3,3,0,no
8,0,1,1,0,3,1,1,8,0,8,8,0,no
10,1,2,2,0,1,1,1,10,0,10,10,0,no
11,1,2,1,0,3,1,1,11,0,11,11,0,no
4,2,0,0,0,0,1,1,4,0,4,4,0,no
19,0,3,2,0,4,2,2,20,1,19,10.5,1,no
2,0,0,0,1,0,1,1,2,0,2,2,0,no
3,1,0,0,0,0,1,1,3,0,3,3,0,no
18,0,2,2,0,4,1,1,18,0,18,18,0,no
3,0,0,0,0,0,1,1,3,0,3,3,0,no
3,0,0,0,1,0,1,1,3,0,3,3,0,no
3,1,0,0,0,0,1,1,3,0,3,3,0,no
3,0,0,0,0,0,1,1,3,0,3,3,0,no
3,0,0,0,0,0,1,1,3,0,3,3,0,no
3,1,0,0,0,0,1,1,3,0,3,3,0,no
3,1,0,0,0,0,1,1,3,0,3,3,0,no
7,2,2,2,0,1,1,1,7,0,7,7,0,no
12,1,2,2,1,3,1,1,12,0,12,12,0,no
4,0,0,0,1,1,1,1,4,0,4,4,0,no
9,1,2,2,0,2,1,1,9,0,9,9,0,no
3,0,0,0,0,0,1,1,3,0,3,3,0,no
3,0,0,0,0,0,1,1,3,0,3,3,0,no
11,1,1,1,0,3,1,1,11,0,11,11,0,no
3,0,0,0,0,0,1,1,3,0,3,3,0,no
0,0,0,0,1,0,1,1,0,0,0,0,0,no
0,1,0,0,1,0,1,1,0,0,0,0,0,no
7,1,1,1,0,0,1,1,7,0,7,7,0,no
7,1,1,1,0,2,1,1,7,0,7,7,0,no
3,0,0,0,0,0,1,1,3,0,3,3,0,no
36,1,9,4,5,3,1,1,36,0,36,36,0,no
12,1,1,2,0,0,1,1,12,0,12,12,0,no
28,2,6,2,0,4,1,1,28,0,28,28,0,no
16,1,3,3,1,2,1,1,16,0,16,16,0,no
29,2,5,3,0,5,1,1,29,0,29,29,0,no
13,1,2,2,0,4,1,1,13,0,13,13,0,no
16,1,2,2,1,1,1,1,16,0,16,16,0,no
37,2,6,2,4,5,1,1,37,0,37,37,0,no
4,1,0,0,0,1,1,1,4,0,4,4,0,no
4,1,0,0,0,1,1,1,4,0,4,4,0,no
15,1,1,2,0,2,1,1,15,0,15,15,0,no
11,1,1,2,1,0,1,1,11,0,11,11,0,no
3,1,0,0,0,0,1,1,3,0,3,3,0,no
8,0,0,1,0,0,1,1,8,0,8,8,0,no
8,0,0,1,0,0,1,1,8,0,8,8,0,no
3,1,0,0,0,0,1,1,3,0,3,3,0,no
3,0,0,0,0,0,1,1,3,0,3,3,0,no
3,2,0,0,0,0,1,1,3,0,3,3,0,no
11,2,1,1,0,0,1,1,11,0,11,11,0,no
3,2,0,0,0,0,1,1,3,0,3,3,0,no
31,2,10,5,1,3,1,1,31,0,31,31,0,no
22,1,5,3,2,1,1,1,22,0,22,22,0,no
6,3,0,0,0,1,1,1,6,0,6,6,0,no
15,0,1,1,0,3,1,1,15,0,15,15,0,no
3,1,0,0,0,0,1,1,3,0,3,3,0,no
3,2,0,0,0,0,1,1,3,0,3,3,0,no
3,4,0,0,0,0,1,1,3,0,3,3,0,no
36,1,8,3,2,4,1,1,36,0,36,36,0,no
3,0,0,0,0,0,1,1,3,0,3,3,0,no
3,1,0,0,0,0,1,1,3,0,3,3,0,no
3,0,0,0,0,0,1,1,3,0,3,3,0,no
35,2,10,4,2,7,1,1,35,0,35,35,0,no
20,1,6,2,4,3,1,1,20,0,20,20,0,no
13,1,3,1,1,2,1,1,13,0,13,13,0,no
3,0,0,0,0,0,1,1,3,0,3,3,0,no
3,0,0,0,0,0,1,1,3,0,3,3,0,no
3,1,0,0,1,0,1,1,3,0,3,3,0,no
3,0,0,0,0,0,1,1,3,0,3,3,0,no
3,1,0,0,0,0,1,1,3,0,3,3,0,no
10,0,2,1,1,1,1,1,10,0,10,10,0,no
38,1,9,3,1,7,1,1,38,0,38,38,0,no
3,1,0,0,0,0,1,1,3,0,3,3,0,no
0,0,0,0,1,0,1,1,0,0,0,0,0,no
0,0,0,0,1,0,1,1,0,0,0,0,0,no
0,0,0,0,1,0,1,1,0,0,0,0,0,no
0,0,0,0,1,0,1,1,0,0,0,0,0,no
0,1,0,0,1,0,1,1,0,0,0,0,0,no
0,1,0,0,1,0,1,1,0,0,0,0,0,no
0,1,0,0,1,0,1,1,0,0,0,0,0,no
2,0,0,0,1,0,1,1,2,0,2,2,0,no
9,1,1,1,0,1,1,1,9,0,9,9,0,no
3,2,0,0,0,0,1,1,3,0,3,3,0,no
5,4,0,0,0,0,1,1,5,0,5,5,0,no
3,0,0,0,0,0,1,1,3,0,3,3,0,no
3,0,0,0,0,0,1,1,3,0,3,3,0,no
3,0,0,0,0,0,1,1,3,0,3,3,0,no
3,0,0,0,0,0,1,1,3,0,3,3,0,no
3,1,0,0,0,0,1,1,3,0,3,3,0,no
11,1,2,2,0,4,1,1,11,0,11,11,0,no
12,1,3,1,1,1,1,1,12,0,12,12,0,no
6,2,2,1,1,0,1,1,6,0,6,6,0,no
3,1,0,0,0,0,1,1,3,0,3,3,0,no
3,1,0,0,0,0,1,1,3,0,3,3,0,no
3,1,0,0,0,0,1,1,3,0,3,3,0,no
3,0,0,0,0,0,1,1,3,0,3,3,0,no
3,0,0,0,0,0,1,1,3,0,3,3,0,no
4,1,0,0,0,0,1,1,4,0,4,4,0,no
3,0,0,0,0,0,1,1,3,0,3,3,0,no
3,0,0,0,0,0,1,1,3,0,3,3,0,no
4,1,0,0,0,0,1,1,4,0,4,4,0,no
3,0,0,0,0,0,1,1,3,0,3,3,0,no
2,0,0,0,1,0,1,1,2,0,2,2,0,no
3,0,0,0,0,0,1,1,3,0,3,3,0,no
2,0,0,0,0,0,1,1,2,0,2,2,0,no
27,1,6,2,4,5,1,1,27,0,27,27,0,no
35,1,6,2,5,8,1,1,35,0,35,35,0,no
10,1,1,1,0,0,1,1,10,0,10,10,0,no
3,0,1,0,1,0,1,1,3,0,3,3,0,no
0,0,0,0,1,0,1,1,0,0,0,0,0,no
0,2,0,0,1,0,1,1,0,0,0,0,0,no
5,0,1,1,0,1,1,1,5,0,5,5,0,no
5,1,1,1,0,1,1,1,5,0,5,5,0,no
7,1,1,1,0,2,1,1,7,0,7,7,0,no
3,0,0,0,0,0,1,1,3,0,3,3,0,no
3,1,0,0,0,0,1,1,3,0,3,3,0,no
3,2,0,0,0,0,1,1,3,0,3,3,0,no
8,6,1,0,0,0,1,1,8,0,8,8,0,no
3,0,0,0,0,0,1,1,3,0,3,3,0,no
3,0,0,0,0,0,1,1,3,0,3,3,0,no
3,0,0,0,0,0,1,1,3,0,3,3,0,no
3,0,0,0,0,0,1,1,3,0,3,3,0,no
3,0,0,0,0,0,1,1,3,0,3,3,0,no
3,0,0,0,0,0,1,1,3,0,3,3,0,no
2,0,0,0,1,0,1,1,2,0,2,2,0,no
8,1,0,0,0,0,1,1,8,0,8,8,0,no
12,1,3,1,0,2,1,1,12,0,12,12,0,no
3,0,0,0,0,0,1,1,3,0,3,3,0,no
11,0,3,2,0,3,1,1,11,0,11,11,0,no
25,1,6,3,0,1,2,2,25,0,21,12.5,1,no
3,3,0,0,0,0,3,3,7,4,5,3.666667,1,no
8,4,0,0,0,0,1,1,8,0,8,8,0,no
22,8,2,1,0,1,3,2,22,0,13,7.333333,1,no
20,0,3,2,0,1,3,3,15,0,8,5,1,no
20,1,4,2,1,4,2,2,21,1,20,11,1,yes
19,1,3,3,0,2,6,3,13,5,8,3,1,no
31,1,3,1,0,11,4,3,4,3,2,1.75,1,no
22,5,2,1,0,1,3,2,22,0,13,7.333333,1,no
22,6,2,1,0,1,3,2,22,0,13,7.333333,1,no
12,2,1,1,0,0,3,2,7,2,5,3,1,yes
12,2,1,1,0,0,3,2,7,2,5,3,1,yes
12,2,1,1,0,0,3,2,7,2,5,3,1,yes
3,0,0,0,0,0,1,1,3,0,3,3,1,no
3,0,0,0,0,0,1,1,3,0,3,3,1,no
3,0,0,0,0,0,1,1,3,0,3,3,1,no
5,0,1,1,0,1,2,2,6,1,5,3.5,1,no
7,5,1,1,0,1,0,0,0,0,0,0,0,no
4,0,0,0,0,0,0,0,0,0,0,0,0,no
4,0,0,0,0,0,0,0,0,0,0,0,0,no
3,0,0,0,0,0,0,0,0,0,0,0,0,no
5,1,1,1,0,0,0,0,0,0,0,0,0,no
14,2,1,1,0,3,1,1,14,0,14,14,0,no
3,0,0,0,0,0,1,1,3,0,3,3,0,no
8,1,0,0,0,2,1,1,8,0,8,8,0,no
7,0,0,0,0,0,1,1,7,0,7,7,0,no
6,0,0,0,0,0,2,2,6,0,5,3,0,no
3,0,0,0,0,0,3,2,11,8,11,6.333333,0,no
6,0,0,0,0,0,1,1,6,0,6,6,0,no
15,0,2,1,0,2,4,2,17,2,14,4.75,0,no
3,0,0,0,0,0,1,1,3,0,3,3,0,no
7,1,1,1,0,1,1,1,7,0,7,7,0,no
4,0,0,0,0,0,1,1,4,0,4,4,0,no
7,1,1,1,0,1,1,1,7,0,7,7,0,no
3,0,1,0,0,0,1,1,3,0,3,3,0,no
3,2,0,0,0,0,1,1,3,0,3,3,0,no
4,6,0,0,0,0,1,1,4,0,4,4,0,no
3,0,0,0,0,0,1,1,3,0,3,3,0,no
3,0,0,0,0,0,1,1,3,0,3,3,0,no
3,0,0,0,0,0,1,1,3,0,3,3,0,no
3,4,0,0,0,0,1,1,3,0,3,3,0,no
5,3,0,0,0,0,1,1,5,0,5,5,0,no
12,1,1,1,0,3,1,1,12,0,12,12,0,no
3,0,0,0,0,0,1,1,3,0,3,3,0,no
3,0,0,0,0,0,1,1,3,0,3,3,0,no
3,0,0,0,0,0,1,1,3,0,3,3,0,no
7,0,1,1,0,0,1,1,7,0,7,7,0,no
3,4,0,0,0,0,1,1,3,0,3,3,0,no
3,5,0,0,0,0,1,1,3,0,3,3,0,no
3,0,0,0,0,0,1,1,3,0,3,3,0,no
4,4,0,0,0,0,1,1,4,0,4,4,0,no
4,5,0,0,0,0,1,1,4,0,4,4,0,no
3,0,0,0,0,0,1,1,3,0,3,3,0,no
3,0,0,0,0,0,1,1,3,0,3,3,0,no
3,5,0,0,0,0,1,1,3,0,3,3,0,no
8,6,0,0,0,0,1,1,8,0,8,8,0,no
3,0,0,0,0,0,1,1,3,0,3,3,0,no
3,0,0,0,0,0,1,1,3,0,3,3,0,no
3,0,0,0,0,0,1,1,3,0,3,3,0,no
4,0,0,0,0,0,1,1,4,0,4,4,0,no
3,0,0,0,0,0,1,1,3,0,3,3,0,no
3,0,0,0,0,0,1,1,3,0,3,3,0,no
3,0,0,0,0,0,1,1,3,0,3,3,0,no
3,0,0,0,0,0,1,1,3,0,3,3,0,no
7,5,0,0,0,0,1,1,7,0,7,7,0,no
3,0,0,0,0,0,1,1,3,0,3,3,0,no
3,0,0,0,0,0,1,1,3,0,3,3,0,no
3,0,0,0,0,0,1,1,3,0,3,3,0,no
3,0,0,0,0,0,1,1,3,0,3,3,0,no
3,0,0,0,0,0,1,1,3,0,3,3,0,no
3,0,0,0,0,0,2,2,4,1,3,2.5,0,no
4,3,0,0,1,0,1,1,4,0,4,4,0,no
3,2,0,0,0,0,1,1,3,0,3,3,0,no
3,2,0,0,0,0,1,1,3,0,3,3,0,no
3,2,0,0,0,0,1,1,3,0,3,3,0,no
8,2,1,1,0,1,1,1,8,0,8,8,0,no
9,2,1,1,0,2,1,1,9,0,9,9,0,no
10,1,1,1,0,0,2,2,10,0,9,5,0,no
3,0,0,0,0,0,1,1,3,0,3,3,0,no
3,0,0,0,0,0,1,1,3,0,3,3,0,no
3,0,0,0,0,0,2,2,7,4,7,5.5,0,no
3,0,0,0,0,0,1,1,3,0,3,3,0,no
3,0,0,0,0,0,1,1,3,0,3,3,0,no
3,0,0,0,0,0,1,1,3,0,3,3,0,no
3,0,0,0,0,0,1,1,3,0,3,3,0,no
12,2,2,1,5,0,1,1,12,0,12,12,0,no
38,1,4,2,0,6,1,1,38,0,38,38,0,no
3,1,0,0,0,0,1,1,3,0,3,3,0,no
35,1,6,3,0,6,1,1,35,0,35,35,0,no
4,0,0,0,0,1,1,1,4,0,4,4,0,no
10,0,1,1,0,0,1,1,10,0,10,10,0,no
4,0,0,0,1,0,2,2,4,0,3,2,0,no
14,0,2,1,0,0,3,2,14,0,12,4.666667,0,no
15,0,2,1,0,0,2,1,15,0,11,7.5,1,no
4,0,0,0,1,0,2,2,4,0,3,2,0,no
11,0,2,2,0,0,1,1,11,0,11,11,0,no
4,0,0,0,0,0,1,1,4,0,4,4,0,no
4,1,0,0,0,0,1,1,4,0,4,4,0,no
17,0,4,2,0,0,3,1,17,0,12,5.666667,1,no
5,2,0,0,0,0,1,1,5,0,5,5,0,no
3,0,0,0,0,0,2,1,4,1,3,2.5,0,no
3,0,0,0,0,0,1,1,3,0,3,3,0,no
3,0,0,0,0,0,1,1,3,0,3,3,0,no
3,0,0,0,0,0,1,1,3,0,3,3,0,no
3,0,0,0,0,0,2,1,4,1,3,2.5,0,no
7,0,1,1,0,0,2,2,8,1,7,4.5,1,no
3,0,0,0,0,0,1,1,3,0,3,3,0,no
0,0,0,0,1,0,1,1,0,0,0,0,0,no
0,0,0,0,1,0,1,1,0,0,0,0,0,no
0,0,0,0,1,0,1,1,0,0,0,0,0,no
0,0,0,0,1,0,1,1,0,0,0,0,0,no
0,0,0,0,1,0,1,1,0,0,0,0,0,no
0,2,0,0,0,0,0,0,0,0,0,0,0,no
0,2,0,0,0,0,1,1,0,0,0,0,0,no
10,5,1,1,0,0,1,1,10,0,10,10,1,no
7,3,1,1,1,0,2,2,8,1,7,4.5,1,no
9,0,2,2,0,0,1,1,9,0,9,9,1,no
0,2,0,0,1,0,1,1,0,0,0,0,1,no
0,5,0,0,0,0,0,0,0,0,0,0,0,no
0,5,0,0,0,0,0,0,0,0,0,0,0,no
2,0,0,0,0,0,1,1,2,0,2,2,1,no
3,0,0,0,0,0,1,1,3,0,3,3,1,no
2,1,0,0,1,0,1,1,2,0,2,2,1,no
18,1,0,0,21,0,7,2,20,2,8,3.142857,1,no
3,1,0,0,0,0,1,1,3,0,3,3,0,no
2,1,0,0,1,0,1,1,2,0,2,2,0,no
13,0,2,2,1,3,1,1,13,0,13,13,0,no
10,0,1,1,1,2,1,1,10,0,10,10,0,no
3,0,0,0,0,0,1,1,3,0,3,3,0,no
3,0,0,0,0,0,1,1,3,0,3,3,0,no
3,0,0,0,2,0,1,1,3,0,3,3,0,no
12,0,2,1,2,1,1,1,12,0,12,12,0,no
3,0,0,0,1,0,1,1,3,0,3,3,0,no
3,0,0,0,0,0,1,1,3,0,3,3,0,no
3,0,0,0,1,0,1,1,3,0,3,3,0,no
7,0,1,1,2,1,1,1,7,0,7,7,0,no
3,0,0,0,0,0,1,1,3,0,3,3,0,no
3,1,0,0,1,0,1,1,3,0,3,3,0,no
3,0,0,0,0,0,1,1,3,0,3,3,0,no
4,1,0,0,2,1,1,1,4,0,4,4,0,no
8,1,1,1,1,1,1,1,8,0,8,8,0,no
8,2,1,1,1,1,1,1,8,0,8,8,0,no
3,1,0,0,1,0,1,1,3,0,3,3,0,no
3,2,0,0,1,0,1,1,3,0,3,3,0,no
3,1,0,0,1,0,1,1,3,0,3,3,0,no
3,2,0,0,1,0,1,1,3,0,3,3,0,no
3,1,0,0,1,0,1,1,3,0,3,3,0,no
3,2,0,0,1,0,1,1,3,0,3,3,0,no
3,1,0,0,1,0,1,1,3,0,3,3,0,no
3,2,0,0,1,0,1,1,3,0,3,3,0,no
3,0,0,0,0,0,1,1,3,0,3,3,0,no
3,0,0,0,2,0,1,1,3,0,3,3,0,no
7,1,1,1,1,0,1,1,7,0,7,7,0,no
3,0,0,0,0,0,1,1,3,0,3,3,0,no
4,1,0,0,0,0,1,1,4,0,4,4,0,no
7,0,1,1,2,1,1,1,7,0,7,7,0,no
7,0,1,1,2,1,1,1,7,0,7,7,0,no
12,0,1,1,6,3,1,1,12,0,12,12,0,no
6,0,0,0,1,0,1,1,6,0,6,6,0,no
6,0,0,0,1,0,1,1,6,0,6,6,0,no
3,0,0,0,1,0,1,1,3,0,3,3,0,no
3,0,0,0,0,0,1,1,3,0,3,3,0,no
10,0,1,1,1,2,1,1,10,0,10,10,0,no
3,0,0,0,2,0,1,1,3,0,3,3,0,no
3,0,0,0,2,0,1,1,3,0,3,3,0,no
3,0,0,0,1,0,1,1,3,0,3,3,0,no
3,0,0,0,1,0,1,1,3,0,3,3,0,no
3,0,0,0,1,0,1,1,3,0,3,3,0,no
3,0,0,0,1,0,1,1,3,0,3,3,0,no
4,0,1,1,1,0,1,1,4,0,4,4,0,no
27,2,5,3,1,2,1,1,27,0,27,27,0,no
8,1,1,1,2,0,1,1,8,0,8,8,0,no
9,1,2,1,3,0,1,1,9,0,9,9,0,no
9,1,1,1,0,0,1,1,9,0,9,9,0,no
5,1,0,0,0,0,1,1,5,0,5,5,0,no
0,0,0,0,0,0,1,1,0,0,0,0,0,no
0,0,0,0,0,0,1,1,0,0,0,0,0,no
3,1,0,0,0,0,1,1,3,0,3,3,0,no
2,1,0,0,1,0,1,1,2,0,2,2,0,no
13,0,2,2,1,3,1,1,13,0,13,13,0,no
10,0,1,1,1,2,1,1,10,0,10,10,0,no
3,0,0,0,0,0,1,1,3,0,3,3,0,no
3,0,0,0,0,0,1,1,3,0,3,3,0,no
3,0,0,0,2,0,1,1,3,0,3,3,0,no
13,0,2,2,1,3,1,1,13,0,13,13,0,no
10,0,1,1,1,2,1,1,10,0,10,10,0,no
13,0,2,2,1,3,1,1,13,0,13,13,0,no
10,0,1,1,1,2,1,1,10,0,10,10,0,no
13,0,2,2,1,3,1,1,13,0,13,13,0,no
10,0,1,1,1,2,1,1,10,0,10,10,0,no
21,0,5,1,5,1,1,1,21,0,21,21,0,no
3,0,0,0,1,0,1,1,3,0,3,3,0,no
3,0,0,0,1,0,1,1,3,0,3,3,0,no
3,0,0,0,1,0,1,1,3,0,3,3,0,no
3,0,0,0,1,0,1,1,3,0,3,3,0,no
6,0,0,0,0,0,1,1,6,0,6,6,0,no
3,0,0,0,1,0,1,1,3,0,3,3,0,no
19,0,4,1,2,1,1,1,19,0,19,19,0,no
3,0,0,0,0,0,1,1,3,0,3,3,0,no
3,1,0,0,1,0,1,1,3,0,3,3,0,no
3,0,0,0,0,0,1,1,3,0,3,3,0,no
4,1,0,0,2,1,1,1,4,0,4,4,0,no
8,1,1,1,1,1,1,1,8,0,8,8,0,no
8,2,1,1,1,1,1,1,8,0,8,8,0,no
3,1,0,0,1,0,1,1,3,0,3,3,0,no
3,2,0,0,1,0,1,1,3,0,3,3,0,no
3,1,0,0,1,0,1,1,3,0,3,3,0,no
3,2,0,0,1,0,1,1,3,0,3,3,0,no
3,1,0,0,1,0,1,1,3,0,3,3,0,no
3,2,0,0,1,0,1,1,3,0,3,3,0,no
3,1,0,0,1,0,1,1,3,0,3,3,0,no
3,2,0,0,1,0,1,1,3,0,3,3,0,no
3,0,0,0,0,0,1,1,3,0,3,3,0,no
3,0,0,0,2,0,1,1,3,0,3,3,0,no
16,1,4,1,4,0,1,1,16,0,16,16,0,no
3,0,0,0,0,0,1,1,3,0,3,3,0,no
4,1,0,0,0,0,1,1,4,0,4,4,0,no
7,0,1,1,2,1,1,1,7,0,7,7,0,no
7,0,1,1,2,1,1,1,7,0,7,7,0,no
24,0,4,1,9,3,1,1,24,0,24,24,0,no
12,0,0,0,4,0,1,1,12,0,12,12,0,no
6,0,0,0,1,0,1,1,6,0,6,6,0,no
6,0,0,0,1,0,1,1,6,0,6,6,0,no
6,0,0,0,1,0,1,1,6,0,6,6,0,no
6,0,0,0,1,0,1,1,6,0,6,6,0,no
3,0,0,0,1,0,1,1,3,0,3,3,0,no
3,0,0,0,0,0,1,1,3,0,3,3,0,no
10,0,1,1,1,2,1,1,10,0,10,10,0,no
3,0,0,0,2,0,1,1,3,0,3,3,0,no
3,0,0,0,2,0,1,1,3,0,3,3,0,no
3,0,0,0,1,0,1,1,3,0,3,3,0,no
10,0,1,1,1,2,1,1,10,0,10,10,0,no
10,0,1,1,1,2,1,1,10,0,10,10,0,no
10,0,1,1,1,2,1,1,10,0,10,10,0,no
3,0,0,0,1,0,1,1,3,0,3,3,0,no
3,0,0,0,1,0,1,1,3,0,3,3,0,no
3,0,0,0,1,0,1,1,3,0,3,3,0,no
3,0,0,0,1,0,1,1,3,0,3,3,0,no
3,0,0,0,1,0,1,1,3,0,3,3,0,no
12,0,3,1,2,0,1,1,12,0,12,12,0,no
4,0,1,1,1,0,1,1,4,0,4,4,0,no
45,2,8,3,1,2,1,1,45,0,45,45,0,no
8,1,1,1,2,0,1,1,8,0,8,8,0,no
18,1,5,1,3,0,1,1,18,0,18,18,0,no
9,1,1,1,0,0,1,1,9,0,9,9,0,no
5,1,0,0,0,0,1,1,5,0,5,5,0,no
9,1,1,1,0,0,1,1,9,0,9,9,0,no
5,1,0,0,0,0,1,1,5,0,5,5,0,no
9,1,1,1,0,0,1,1,9,0,9,9,0,no
5,1,0,0,0,0,1,1,5,0,5,5,0,no
9,1,1,1,0,0,1,1,9,0,9,9,0,no
5,1,0,0,0,0,1,1,5,0,5,5,0,no
0,0,0,0,0,0,1,1,0,0,0,0,0,no
0,0,0,0,0,0,1,1,0,0,0,0,0,no
0,0,0,0,0,0,1,1,0,0,0,0,0,no
0,0,0,0,0,0,1,1,0,0,0,0,0,no
0,0,0,0,0,0,1,1,0,0,0,0,0,no
0,0,0,0,0,0,1,1,0,0,0,0,0,no
0,0,0,0,0,0,1,1,0,0,0,0,0,no
0,0,0,0,0,0,1,1,0,0,0,0,0,no
3,1,0,0,0,0,1,1,3,0,3,3,1,no
2,1,0,0,1,0,1,1,2,0,2,2,1,no
3,0,0,0,0,0,1,1,3,0,3,3,0,no
3,0,0,0,0,0,1,1,3,0,3,3,1,no
3,0,0,0,0,0,1,1,3,0,3,3,1,no
3,0,0,0,2,0,1,1,3,0,3,3,1,no
3,0,0,0,1,0,1,1,3,0,3,3,0,no
3,0,0,0,0,0,1,1,3,0,3,3,1,no
3,0,0,0,0,0,1,1,3,0,3,3,1,no
3,0,0,0,0,0,1,1,3,0,3,3,1,no
3,0,0,0,0,0,1,1,3,0,3,3,0,no
3,0,0,0,0,0,1,1,3,0,3,3,1,no
3,1,0,0,1,0,1,1,3,0,3,3,1,no
3,0,0,0,0,0,1,1,3,0,3,3,1,no
3,0,0,0,1,0,1,1,3,0,3,3,1,no
3,1,0,0,1,0,1,1,3,0,3,3,1,no
3,0,0,0,1,0,1,1,3,0,3,3,1,no
36,0,10,1,9,2,3,2,36,0,27,12,1,no
3,0,0,0,1,0,1,1,3,0,3,3,1,no
3,0,0,0,1,0,1,1,3,0,3,3,0,no
3,0,0,0,1,0,1,1,3,0,3,3,0,no
3,0,0,0,1,0,1,1,3,0,3,3,1,no
3,0,0,0,1,0,1,1,3,0,3,3,1,no
3,0,0,0,1,0,1,1,3,0,3,3,1,no
3,0,0,0,1,0,1,1,3,0,3,3,0,no
3,0,0,0,1,0,1,1,3,0,3,3,1,no
3,0,0,0,1,0,1,1,3,0,3,3,1,no
11,0,0,0,2,0,3,2,11,0,8,3.666667,1,no
3,0,0,0,1,0,1,1,3,0,3,3,1,no
29,0,7,2,2,2,1,1,29,0,29,29,1,no
3,0,0,0,0,0,1,1,3,0,3,3,1,no
3,1,0,0,1,0,1,1,3,0,3,3,1,no
3,0,0,0,0,0,1,1,3,0,3,3,1,no
4,1,0,0,2,1,1,1,4,0,4,4,1,no
8,1,1,1,1,1,1,1,8,0,8,8,1,no
8,2,1,1,1,1,1,1,8,0,8,8,1,no
3,1,0,0,1,0,1,1,3,0,3,3,1,no
3,2,0,0,1,0,1,1,3,0,3,3,1,no
3,1,0,0,1,0,1,1,3,0,3,3,1,no
3,2,0,0,1,0,1,1,3,0,3,3,1,no
3,1,0,0,1,0,1,1,3,0,3,3,1,no
3,2,0,0,1,0,1,1,3,0,3,3,1,no
3,1,0,0,1,0,1,1,3,0,3,3,1,no
3,2,0,0,1,0,1,1,3,0,3,3,1,no
3,0,0,0,0,0,1,1,3,0,3,3,1,no
3,0,0,0,2,0,1,1,3,0,3,3,1,no
31,1,9,1,8,1,3,2,31,0,22,10.333333,1,no
3,0,0,0,0,0,1,1,3,0,3,3,1,no
4,1,0,0,0,0,1,1,4,0,4,4,1,no
10,1,1,1,2,0,1,1,10,0,10,10,1,no
13,2,2,2,1,0,1,1,13,0,13,13,1,no
10,2,1,1,1,0,1,1,10,0,10,10,1,no
13,1,2,2,1,0,1,1,13,0,13,13,1,no
10,1,1,1,1,0,1,1,10,0,10,10,1,no
3,0,0,0,2,0,1,1,3,0,3,3,1,no
3,1,0,0,2,0,1,1,3,0,3,3,1,no
7,0,1,1,2,1,1,1,7,0,7,7,1,no
7,0,1,1,2,1,1,1,7,0,7,7,1,no
49,0,10,2,15,3,3,2,49,0,37,16.333333,1,no
26,0,1,1,11,0,3,2,26,0,20,8.666667,1,no
6,0,0,0,1,0,1,1,6,0,6,6,0,no
6,0,0,0,2,0,1,1,6,0,6,6,0,no
6,0,0,0,1,0,1,1,6,0,6,6,1,no
6,0,0,0,1,0,1,1,6,0,6,6,1,no
6,0,0,0,1,0,1,1,6,0,6,6,1,no
6,0,0,0,1,0,1,1,6,0,6,6,0,no
6,0,0,0,1,0,1,1,6,0,6,6,1,no
10,0,1,1,1,0,1,1,10,0,10,10,1,no
6,0,0,0,2,0,1,1,6,0,6,6,1,no
3,0,0,0,1,0,1,1,3,0,3,3,1,no
3,0,0,0,0,0,1,1,3,0,3,3,1,no
6,0,1,1,2,0,1,1,6,0,6,6,1,no
3,0,0,0,0,0,1,1,3,0,3,3,0,no
3,0,0,0,2,0,1,1,3,0,3,3,1,no
3,0,0,0,2,0,1,1,3,0,3,3,1,no
3,0,0,0,1,0,1,1,3,0,3,3,1,no
3,0,0,0,1,0,1,1,3,0,3,3,0,no
3,0,0,0,0,0,1,1,3,0,3,3,1,no
3,0,0,0,0,0,1,1,3,0,3,3,1,no
3,0,0,0,0,0,1,1,3,0,3,3,1,no
3,0,0,0,0,0,1,1,3,0,3,3,0,no
3,0,0,0,0,0,1,1,3,0,3,3,1,no
7,1,1,1,1,0,1,1,7,0,7,7,1,no
3,1,0,0,1,0,1,1,3,0,3,3,1,no
3,0,0,0,1,0,1,1,3,0,3,3,1,no
7,0,1,1,0,0,1,1,7,0,7,7,1,no
7,0,1,1,7,0,1,1,7,0,7,7,1,no
7,0,1,1,1,0,1,1,7,0,7,7,1,no
7,1,1,1,1,0,1,1,7,0,7,7,1,no
7,0,1,1,1,0,1,1,7,0,7,7,1,no
3,0,0,0,1,0,1,1,3,0,3,3,1,no
3,0,0,0,1,0,1,1,3,0,3,3,0,no
3,0,0,0,1,0,1,1,3,0,3,3,0,no
3,0,0,0,1,0,1,1,3,0,3,3,1,no
3,0,0,0,1,0,1,1,3,0,3,3,1,no
3,0,0,0,1,0,1,1,3,0,3,3,1,no
3,0,0,0,1,0,1,1,3,0,3,3,0,no
3,0,0,0,1,0,1,1,3,0,3,3,1,no
3,0,0,0,1,0,1,1,3,0,3,3,1,no
3,0,0,0,1,0,1,1,3,0,3,3,1,no
20,0,6,2,1,1,1,1,20,0,20,20,1,no
5,0,1,1,0,0,1,1,5,0,5,5,1,no
88,2,15,3,7,7,3,2,88,0,64,29.333333,1,no
8,1,1,1,2,0,1,1,8,0,8,8,1,no
54,1,15,3,5,0,3,2,54,0,45,18,1,no
10,1,1,1,0,0,1,1,10,0,10,10,1,no
6,1,0,0,0,0,1,1,6,0,6,6,0,no
9,1,1,1,1,0,1,1,9,0,9,9,0,no
6,1,0,0,0,0,1,1,6,0,6,6,1,no
6,1,0,0,0,0,1,1,6,0,6,6,1,no
6,1,0,0,0,0,1,1,6,0,6,6,1,no
9,1,1,1,0,0,1,1,9,0,9,9,0,no
6,1,0,0,0,0,1,1,6,0,6,6,1,no
13,2,2,2,1,0,1,1,13,0,13,13,1,no
10,2,1,1,1,0,1,1,10,0,10,10,1,no
9,1,1,1,1,0,1,1,9,0,9,9,1,no
4,2,0,0,1,0,1,1,4,0,4,4,0,no
3,0,0,0,1,0,1,1,3,0,3,3,0,no
3,0,0,0,0,0,1,1,3,0,3,3,0,no
3,0,0,0,0,0,1,1,3,0,3,3,0,no
3,0,0,0,0,0,1,1,3,0,3,3,0,no
3,0,0,0,0,0,1,1,3,0,3,3,0,no
6,1,1,1,1,0,1,1,6,0,6,6,0,no
10,1,3,1,0,0,1,1,10,0,10,10,0,no
3,1,0,0,0,0,1,1,3,0,3,3,0,no
3,1,0,0,0,0,1,1,3,0,3,3,1,no
2,1,0,0,1,0,1,1,2,0,2,2,1,no
3,0,0,0,0,0,1,1,3,0,3,3,1,no
3,0,0,0,0,0,1,1,3,0,3,3,1,no
3,0,0,0,2,0,1,1,3,0,3,3,1,no
3,1,0,0,0,0,1,1,3,0,3,3,1,no
3,0,0,0,0,0,1,1,3,0,3,3,1,no
3,0,0,0,0,0,1,1,3,0,3,3,1,no
3,0,0,0,0,0,1,1,3,0,3,3,1,no
20,0,3,1,2,3,1,1,20,0,20,20,1,no
3,0,0,0,1,0,1,1,3,0,3,3,1,no
4,0,0,0,0,0,1,1,4,0,4,4,1,no
3,0,0,0,1,0,1,1,3,0,3,3,1,no
11,0,2,1,2,1,1,1,11,0,11,11,1,no
3,0,0,0,0,0,1,1,3,0,3,3,1,no
3,1,0,0,1,0,1,1,3,0,3,3,1,no
3,0,0,0,0,0,1,1,3,0,3,3,1,no
4,1,0,0,2,1,1,1,4,0,4,4,1,no
8,1,1,1,1,1,1,1,8,0,8,8,1,no
8,2,1,1,1,1,1,1,8,0,8,8,1,no
3,1,0,0,1,0,1,1,3,0,3,3,1,no
3,2,0,0,1,0,1,1,3,0,3,3,1,no
3,1,0,0,1,0,1,1,3,0,3,3,1,no
3,2,0,0,1,0,1,1,3,0,3,3,1,no
3,1,0,0,1,0,1,1,3,0,3,3,1,no
3,2,0,0,1,0,1,1,3,0,3,3,1,no
3,1,0,0,1,0,1,1,3,0,3,3,1,no
3,2,0,0,1,0,1,1,3,0,3,3,1,no
3,0,0,0,0,0,1,1,3,0,3,3,1,no
3,0,0,0,2,0,1,1,3,0,3,3,1,no
10,1,2,1,1,1,1,1,10,0,10,10,1,no
3,0,0,0,0,0,1,1,3,0,3,3,1,no
4,1,0,0,0,0,1,1,4,0,4,4,1,no
6,1,0,0,1,0,1,1,6,0,6,6,1,no
9,1,1,1,0,0,1,1,9,0,9,9,1,no
5,1,0,0,0,0,1,1,5,0,5,5,1,no
7,0,1,1,2,1,1,1,7,0,7,7,1,no
7,0,1,1,2,1,1,1,7,0,7,7,1,no
17,0,2,1,8,3,1,1,17,0,17,17,1,no
8,0,0,0,2,0,1,1,8,0,8,8,1,no
6,0,0,0,1,0,1,1,6,0,6,6,1,no
6,0,0,0,1,0,1,1,6,0,6,6,1,no
3,0,0,0,1,0,1,1,3,0,3,3,1,no
3,0,0,0,0,0,1,1,3,0,3,3,1,no
6,0,1,1,1,0,1,1,6,0,6,6,1,no
3,0,0,0,2,0,1,1,3,0,3,3,1,no
3,0,0,0,2,0,1,1,3,0,3,3,1,no
3,0,0,0,1,0,1,1,3,0,3,3,1,no
3,1,0,0,0,0,1,1,3,0,3,3,1,no
3,0,0,0,0,0,1,1,3,0,3,3,1,no
3,0,0,0,0,0,1,1,3,0,3,3,1,no
3,0,0,0,0,0,1,1,3,0,3,3,1,no
3,0,0,0,1,0,1,1,3,0,3,3,1,no
3,0,0,0,1,0,1,1,3,0,3,3,1,no
6,0,1,1,2,0,1,1,6,0,6,6,1,no
4,0,1,1,1,0,1,1,4,0,4,4,1,no
33,2,6,3,1,2,1,1,33,0,33,33,1,no
8,1,1,1,2,0,1,1,8,0,8,8,1,no
19,1,4,2,4,0,1,1,19,0,19,19,1,no
9,2,1,1,0,0,1,1,9,0,9,9,1,no
6,1,0,0,0,0,1,1,6,0,6,6,1,no
0,1,0,0,0,0,1,1,0,0,0,0,1,no
0,0,0,0,0,0,1,1,0,0,0,0,1,no
0,0,0,0,0,0,1,1,0,0,0,0,1,no
0,0,0,0,0,0,1,1,0,0,0,0,1,no
0,0,0,0,0,0,1,1,0,0,0,0,1,no
4,2,0,0,1,0,1,1,4,0,4,4,1,no
3,0,0,0,1,0,1,1,3,0,3,3,1,no
3,0,0,0,0,0,1,1,3,0,3,3,1,no
3,0,0,0,0,0,1,1,3,0,3,3,1,no
3,0,0,0,0,0,1,1,3,0,3,3,1,no
3,0,0,0,0,0,1,1,3,0,3,3,1,no
6,1,1,1,1,0,1,1,6,0,6,6,1,no
12,1,4,1,0,0,1,1,12,0,12,12,1,no
3,1,0,0,0,0,1,1,3,0,3,3,1,no
0,0,0,0,0,0,1,1,0,0,0,0,0,no
0,0,0,0,1,0,1,1,0,0,0,0,0,no
0,0,0,0,0,0,1,1,0,0,0,0,1,no
0,0,0,0,0,0,1,1,0,0,0,0,1,no
0,0,0,0,0,0,1,1,0,0,0,0,1,no
0,0,0,0,0,0,1,1,0,0,0,0,0,no
0,0,0,0,0,0,1,1,0,0,0,0,1,no
0,1,0,0,1,0,1,1,0,0,0,0,1,no
0,0,0,0,0,0,1,1,0,0,0,0,1,no
0,0,0,0,1,0,1,1,0,0,0,0,1,no
0,1,0,0,1,0,1,1,0,0,0,0,1,no
0,0,0,0,1,0,1,1,0,0,0,0,1,no
0,0,0,0,1,0,1,1,0,0,0,0,1,no
0,0,0,0,0,0,1,1,0,0,0,0,0,no
0,0,0,0,0,0,1,1,0,0,0,0,0,no
0,0,0,0,0,0,1,1,0,0,0,0,1,no
0,0,0,0,0,0,1,1,0,0,0,0,1,no
0,0,0,0,0,0,1,1,0,0,0,0,1,no
0,0,0,0,0,0,1,1,0,0,0,0,0,no
0,0,0,0,0,0,1,1,0,0,0,0,1,no
0,0,0,0,0,0,1,1,0,0,0,0,1,no
3,1,0,0,0,0,1,1,3,0,3,3,0,no
2,1,0,0,1,0,1,1,2,0,2,2,0,no
3,0,0,0,0,0,1,1,3,0,3,3,0,no
3,0,0,0,0,0,1,1,3,0,3,3,0,no
3,0,0,0,2,0,1,1,3,0,3,3,0,no
15,0,3,1,3,1,1,1,15,0,15,15,0,no
13,0,2,2,1,3,1,1,13,0,13,13,0,no
10,0,1,1,1,2,1,1,10,0,10,10,0,no
3,0,0,0,0,0,1,1,3,0,3,3,0,no
3,0,0,0,1,0,1,1,3,0,3,3,0,no
3,0,0,0,1,0,1,1,3,0,3,3,0,no
4,0,0,0,0,0,1,1,4,0,4,4,0,no
3,0,0,0,1,0,1,1,3,0,3,3,0,no
15,0,3,1,2,1,1,1,15,0,15,15,0,no
3,0,0,0,0,0,1,1,3,0,3,3,0,no
3,1,0,0,1,0,1,1,3,0,3,3,0,no
3,0,0,0,0,0,1,1,3,0,3,3,0,no
4,1,0,0,2,1,1,1,4,0,4,4,0,no
8,1,1,1,1,1,1,1,8,0,8,8,0,no
8,2,1,1,1,1,1,1,8,0,8,8,0,no
3,1,0,0,1,0,1,1,3,0,3,3,0,no
3,2,0,0,1,0,1,1,3,0,3,3,0,no
3,1,0,0,1,0,1,1,3,0,3,3,0,no
3,2,0,0,1,0,1,1,3,0,3,3,0,no
3,1,0,0,1,0,1,1,3,0,3,3,0,no
3,2,0,0,1,0,1,1,3,0,3,3,0,no
3,1,0,0,1,0,1,1,3,0,3,3,0,no
3,2,0,0,1,0,1,1,3,0,3,3,0,no
3,0,0,0,0,0,1,1,3,0,3,3,0,no
3,0,0,0,2,0,1,1,3,0,3,3,0,no
10,1,2,1,2,0,1,1,10,0,10,10,0,no
3,0,0,0,0,0,1,1,3,0,3,3,0,no
4,1,0,0,0,0,1,1,4,0,4,4,0,no
7,0,1,1,2,1,1,1,7,0,7,7,0,no
7,0,1,1,2,1,1,1,7,0,7,7,0,no
16,0,2,1,7,3,1,1,16,0,16,16,0,no
8,0,0,0,2,0,1,1,8,0,8,8,0,no
6,0,0,0,1,0,1,1,6,0,6,6,0,no
6,0,0,0,1,0,1,1,6,0,6,6,0,no
3,0,0,0,1,0,1,1,3,0,3,3,0,no
3,0,0,0,0,0,1,1,3,0,3,3,0,no
3,0,0,0,2,0,1,1,3,0,3,3,0,no
3,0,0,0,2,0,1,1,3,0,3,3,0,no
3,0,0,0,1,0,1,1,3,0,3,3,0,no
10,0,1,1,1,2,1,1,10,0,10,10,0,no
3,0,0,0,0,0,1,1,3,0,3,3,0,no
3,0,0,0,1,0,1,1,3,0,3,3,0,no
3,0,0,0,1,0,1,1,3,0,3,3,0,no
3,0,0,0,1,0,1,1,3,0,3,3,0,no
9,0,2,1,2,0,1,1,9,0,9,9,0,no
4,0,1,1,1,0,1,1,4,0,4,4,0,no
33,2,6,3,1,2,1,1,33,0,33,33,0,no
8,1,1,1,2,0,1,1,8,0,8,8,0,no
12,1,3,1,3,0,1,1,12,0,12,12,0,no
9,1,1,1,0,0,1,1,9,0,9,9,0,no
5,1,0,0,0,0,1,1,5,0,5,5,0,no
6,1,0,0,0,0,1,1,6,0,6,6,0,no
0,0,0,0,0,0,1,1,0,0,0,0,0,no
0,0,0,0,0,0,1,1,0,0,0,0,0,no
0,0,0,0,0,0,1,1,0,0,0,0,0,no
0,0,0,0,0,0,1,1,0,0,0,0,0,no
3,1,0,0,0,0,1,1,3,0,3,3,0,no
2,1,0,0,1,0,1,1,2,0,2,2,0,no
13,0,2,2,1,3,1,1,13,0,13,13,0,no
10,0,1,1,1,2,1,1,10,0,10,10,0,no
3,0,0,0,0,0,1,1,3,0,3,3,0,no
3,0,0,0,0,0,1,1,3,0,3,3,0,no
3,0,0,0,2,0,1,1,3,0,3,3,0,no
12,0,2,1,2,1,1,1,12,0,12,12,0,no
3,0,0,0,1,0,1,1,3,0,3,3,0,no
3,0,0,0,0,0,1,1,3,0,3,3,0,no
3,0,0,0,1,0,1,1,3,0,3,3,0,no
7,0,1,1,2,1,1,1,7,0,7,7,0,no
3,0,0,0,0,0,1,1,3,0,3,3,0,no
3,1,0,0,1,0,1,1,3,0,3,3,0,no
3,0,0,0,0,0,1,1,3,0,3,3,0,no
4,1,0,0,2,1,1,1,4,0,4,4,0,no
8,1,1,1,1,1,1,1,8,0,8,8,0,no
8,2,1,1,1,1,1,1,8,0,8,8,0,no
3,1,0,0,1,0,1,1,3,0,3,3,0,no
3,2,0,0,1,0,1,1,3,0,3,3,0,no
3,1,0,0,1,0,1,1,3,0,3,3,0,no
3,2,0,0,1,0,1,1,3,0,3,3,0,no
3,1,0,0,1,0,1,1,3,0,3,3,0,no
3,2,0,0,1,0,1,1,3,0,3,3,0,no
3,1,0,0,1,0,1,1,3,0,3,3,0,no
3,2,0,0,1,0,1,1,3,0,3,3,0,no
3,0,0,0,0,0,1,1,3,0,3,3,0,no
3,0,0,0,2,0,1,1,3,0,3,3,0,no
7,1,1,1,1,0,1,1,7,0,7,7,0,no
3,0,0,0,0,0,1,1,3,0,3,3,0,no
4,1,0,0,0,0,1,1,4,0,4,4,0,no
7,0,1,1,2,1,1,1,7,0,7,7,0,no
7,0,1,1,2,1,1,1,7,0,7,7,0,no
12,0,1,1,6,3,1,1,12,0,12,12,0,no
6,0,0,0,1,0,1,1,6,0,6,6,0,no
6,0,0,0,1,0,1,1,6,0,6,6,0,no
3,0,0,0,1,0,1,1,3,0,3,3,0,no
3,0,0,0,0,0,1,1,3,0,3,3,0,no
10,0,1,1,1,2,1,1,10,0,10,10,0,no
3,0,0,0,2,0,1,1,3,0,3,3,0,no
3,0,0,0,2,0,1,1,3,0,3,3,0,no
3,0,0,0,1,0,1,1,3,0,3,3,0,no
3,0,0,0,1,0,1,1,3,0,3,3,0,no
3,0,0,0,1,0,1,1,3,0,3,3,0,no
3,0,0,0,1,0,1,1,3,0,3,3,0,no
4,0,1,1,1,0,1,1,4,0,4,4,0,no
27,2,5,3,1,2,1,1,27,0,27,27,0,no
8,1,1,1,2,0,1,1,8,0,8,8,0,no
9,1,2,1,3,0,1,1,9,0,9,9,0,no
9,1,1,1,0,0,1,1,9,0,9,9,0,no
5,1,0,0,0,0,1,1,5,0,5,5,0,no
0,0,0,0,0,0,1,1,0,0,0,0,0,no
0,0,0,0,0,0,1,1,0,0,0,0,0,no
3,1,0,0,0,0,1,1,3,0,3,3,0,no
2,1,0,0,1,0,1,1,2,0,2,2,0,no
3,0,0,0,0,0,1,1,3,0,3,3,0,no
3,0,0,0,0,0,1,1,3,0,3,3,0,no
3,0,0,0,2,0,1,1,3,0,3,3,0,no
3,1,0,0,0,0,1,1,3,0,3,3,0,no
3,0,0,0,0,0,1,1,3,0,3,3,0,no
3,0,0,0,0,0,1,1,3,0,3,3,0,no
17,0,2,1,1,3,1,1,17,0,17,17,0,no
3,0,0,0,0,0,1,1,3,0,3,3,0,no
3,0,0,0,1,0,1,1,3,0,3,3,0,no
7,0,1,1,2,1,1,1,7,0,7,7,0,no
3,0,0,0,0,0,1,1,3,0,3,3,0,no
3,1,0,0,1,0,1,1,3,0,3,3,0,no
3,0,0,0,0,0,1,1,3,0,3,3,0,no
4,1,0,0,2,1,1,1,4,0,4,4,0,no
8,1,1,1,1,1,1,1,8,0,8,8,0,no
8,2,1,1,1,1,1,1,8,0,8,8,0,no
3,1,0,0,1,0,1,1,3,0,3,3,0,no
3,2,0,0,1,0,1,1,3,0,3,3,0,no
3,1,0,0,1,0,1,1,3,0,3,3,0,no
3,2,0,0,1,0,1,1,3,0,3,3,0,no
3,1,0,0,1,0,1,1,3,0,3,3,0,no
3,2,0,0,1,0,1,1,3,0,3,3,0,no
3,1,0,0,1,0,1,1,3,0,3,3,0,no
3,2,0,0,1,0,1,1,3,0,3,3,0,no
3,0,0,0,0,0,1,1,3,0,3,3,0,no
3,0,0,0,2,0,1,1,3,0,3,3,0,no
7,1,1,1,0,1,1,1,7,0,7,7,0,no
3,0,0,0,0,0,1,1,3,0,3,3,0,no
4,1,0,0,0,0,1,1,4,0,4,4,0,no
6,1,0,0,1,0,1,1,6,0,6,6,0,no
9,1,1,1,0,0,1,1,9,0,9,9,0,no
5,1,0,0,0,0,1,1,5,0,5,5,0,no
7,0,1,1,2,1,1,1,7,0,7,7,0,no
7,0,1,1,2,1,1,1,7,0,7,7,0,no
11,0,1,1,7,2,1,1,11,0,11,11,0,no
6,0,0,0,1,0,1,1,6,0,6,6,0,no
6,0,0,0,1,0,1,1,6,0,6,6,0,no
3,0,0,0,1,0,1,1,3,0,3,3,0,no
3,0,0,0,0,0,1,1,3,0,3,3,0,no
6,0,1,1,1,0,1,1,6,0,6,6,0,no
3,0,0,0,2,0,1,1,3,0,3,3,0,no
3,0,0,0,2,0,1,1,3,0,3,3,0,no
3,0,0,0,1,0,1,1,3,0,3,3,0,no
3,1,0,0,0,0,1,1,3,0,3,3,0,no
3,0,0,0,0,0,1,1,3,0,3,3,0,no
3,0,0,0,0,0,1,1,3,0,3,3,0,no
3,0,0,0,1,0,1,1,3,0,3,3,0,no
3,0,0,0,1,0,1,1,3,0,3,3,0,no
4,0,1,1,1,0,1,1,4,0,4,4,0,no
27,2,5,3,1,2,1,1,27,0,27,27,0,no
8,1,1,1,2,0,1,1,8,0,8,8,0,no
16,1,3,2,4,0,1,1,16,0,16,16,0,no
9,2,1,1,0,0,1,1,9,0,9,9,0,no
0,1,0,0,0,0,1,1,0,0,0,0,0,no
0,0,0,0,0,0,1,1,0,0,0,0,0,no
0,0,0,0,0,0,1,1,0,0,0,0,0,no
3,1,0,0,0,0,2,2,4,1,3,2.5,0,no
8,2,1,1,1,0,2,2,8,0,5,4,0,no
3,2,0,0,0,0,2,2,4,1,3,2.5,0,no
2,0,0,0,1,0,0,0,0,0,0,0,0,no
5,0,1,1,1,0,0,0,0,0,0,0,0,no
3,0,0,0,0,0,0,0,0,0,0,0,0,no
3,0,0,0,0,0,0,0,0,0,0,0,0,no
3,0,1,0,0,0,0,0,0,0,0,0,0,no
3,0,0,0,0,0,0,0,0,0,0,0,0,no
3,0,0,0,0,0,0,0,0,0,0,0,0,no
3,0,0,0,0,0,0,0,0,0,0,0,0,no
3,0,0,0,0,0,0,0,0,0,0,0,0,no
4,0,0,0,0,0,0,0,0,0,0,0,0,no
3,0,0,0,0,0,0,0,0,0,0,0,0,no
3,0,0,0,0,0,0,0,0,0,0,0,0,no
7,0,0,0,0,1,1,1,0,5,5,5,1,no
11,1,2,1,0,1,1,1,1,1,2,2,1,no
12,3,0,0,0,1,2,1,13,1,13,7,1,no
7,1,1,1,2,3,1,1,7,0,7,7,0,no
3,0,0,0,0,0,1,1,3,0,3,3,1,no
76,0,10,4,3,9,2,2,76,0,72,38,1,no
3,0,0,0,0,0,1,1,3,0,3,3,0,no
11,0,1,1,0,4,2,1,11,0,8,5.5,1,no
6,2,1,1,1,1,1,1,6,0,6,6,0,no
18,2,4,1,0,1,2,1,18,0,16,9,1,no
3,0,0,0,0,0,2,1,4,1,3,2.5,0,no
14,2,3,2,3,1,1,1,14,0,14,14,0,no
17,0,3,2,0,0,3,1,18,1,14,6.333333,1,no
60,0,13,3,2,1,3,1,60,0,31,20,1,no
33,0,6,2,2,4,4,2,35,2,32,9.25,1,no
14,0,1,1,0,0,1,1,14,0,14,14,0,no
7,0,1,1,0,1,1,1,7,0,7,7,0,no
4,3,0,0,0,0,1,1,4,0,4,4,0,no
42,2,8,3,3,1,2,2,42,0,38,21,1,no
5,0,0,0,0,0,2,1,19,0,16,9.5,1,no
23,0,5,2,2,4,2,1,19,0,16,9.5,1,no
23,0,7,2,1,0,2,1,19,0,16,9.5,1,no
19,0,4,1,1,0,2,1,19,0,16,9.5,1,no
5,1,0,0,0,1,1,1,5,0,5,5,0,no
4,2,0,0,0,0,1,1,4,0,4,4,0,no
31,2,9,3,0,3,2,1,36,5,36,20.5,1,no
14,3,0,0,0,0,1,1,14,0,14,14,0,no
21,0,6,3,2,0,1,1,21,0,21,21,0,no
6,0,1,1,0,1,2,1,6,0,5,3,0,no
3,1,0,0,0,0,1,1,3,0,3,3,0,no
6,0,1,1,0,0,2,1,7,1,6,4,0,no
13,0,2,1,0,0,2,1,18,5,18,11.5,0,no
4,0,0,0,0,0,1,1,4,0,4,4,0,no
42,0,7,3,1,7,2,2,42,0,39,21,1,no
19,0,4,2,2,0,1,1,19,0,19,19,0,no
15,0,4,2,2,0,1,1,15,0,15,15,0,no
37,0,7,3,1,6,2,2,37,0,34,18.5,1,no
3,1,0,0,0,0,1,1,3,0,3,3,0,no
6,2,2,0,2,3,1,1,6,0,6,6,0,no
4,1,0,0,0,1,1,1,4,0,4,4,0,no
8,1,2,2,0,0,3,1,11,3,10,4.666667,1,no
18,1,1,1,0,1,3,2,19,1,17,6.666667,1,no
3,0,0,0,0,0,1,1,3,0,3,3,0,no
3,0,0,0,0,0,1,1,3,0,3,3,0,no
3,0,0,0,0,0,1,1,3,0,3,3,0,no
12,2,2,1,5,0,1,1,12,0,12,12,0,no
28,1,2,1,0,2,1,1,28,0,28,28,0,no
24,1,5,3,0,5,1,1,24,0,24,24,0,no
4,0,0,0,0,1,1,1,4,0,4,4,0,no
3,0,0,0,0,0,1,1,3,0,3,3,0,no
24,1,3,1,0,0,4,2,24,0,18,6,0,yes
6,0,0,0,0,0,3,1,7,1,5,2.666667,0,no
4,0,0,0,0,0,1,1,4,0,4,4,0,no
8,1,1,1,0,0,1,1,8,0,8,8,1,no
5,1,0,0,0,0,1,1,5,0,5,5,0,no
13,0,3,2,0,0,1,1,13,0,13,13,0,no
3,1,0,0,0,0,1,1,3,0,3,3,0,no
43,0,5,3,1,7,3,2,46,3,46,16.333333,1,no
11,3,2,2,0,2,1,1,11,0,11,11,0,no
4,3,0,0,0,0,1,1,4,0,4,4,0,no
18,2,3,3,1,3,3,2,21,3,21,8,1,no
12,2,3,3,1,2,3,2,15,3,15,6,1,no
4,0,0,0,0,0,1,1,4,0,4,4,0,no
4,2,0,0,0,0,1,1,4,0,4,4,0,no
3,1,0,0,0,0,1,1,3,0,3,3,0,no
3,2,0,0,0,0,1,1,3,0,3,3,0,no
3,2,0,0,0,0,1,1,3,0,3,3,0,no
3,1,0,0,0,0,1,1,3,0,3,3,0,no
3,2,0,0,0,0,1,1,3,0,3,3,0,no
3,1,0,0,0,0,1,1,3,0,3,3,0,no
3,2,0,0,0,0,1,1,3,0,3,3,0,no
13,3,0,0,0,1,3,2,15,2,13,5.666667,0,no
45,1,9,3,0,5,2,2,45,0,43,22.5,1,yes
6,1,0,0,1,2,1,1,6,0,6,6,0,no
3,0,0,0,0,0,2,2,4,1,3,2.5,0,no
9,2,2,2,1,2,1,1,9,0,9,9,0,no
53,0,11,3,4,5,3,1,54,1,50,18.333333,1,no
22,0,4,2,0,0,3,2,46,24,45,23.333333,0,yes
30,0,5,1,0,0,6,2,31,1,23,5.333333,0,yes
3,0,0,0,0,0,1,1,3,0,3,3,0,no
38,0,9,3,0,3,2,2,38,0,36,19,1,yes
4,2,0,0,0,0,1,1,4,0,4,4,0,no
4,0,0,0,0,0,1,1,4,0,4,4,0,no
8,1,0,0,0,0,0,0,0,0,0,0,0,no
8,2,0,0,0,0,0,0,0,0,0,0,0,no
2,0,0,0,0,0,0,0,0,0,0,0,0,no
11,0,2,1,1,2,0,0,0,0,0,0,0,no
14,1,2,1,0,3,0,0,0,0,0,0,0,no
14,3,2,1,0,3,0,0,0,0,0,0,0,no
23,0,4,2,0,3,0,0,0,0,0,0,0,no
5,1,0,0,0,0,0,0,0,0,0,0,0,no
5,2,0,0,0,0,0,0,0,0,0,0,0,no
3,0,0,0,0,0,0,0,0,0,0,0,0,no
15,0,3,2,2,1,0,0,0,0,0,0,0,no
10,1,2,2,0,0,0,0,0,0,0,0,0,no
14,1,3,2,0,0,0,0,0,0,0,0,0,no
7,3,1,1,0,0,0,0,0,0,0,0,0,no
5,1,0,0,0,1,0,0,0,0,0,0,0,no
25,1,4,2,0,6,2,1,2,2,2,2,0,no
2,0,0,0,1,0,1,1,2,0,2,2,0,no
4,1,0,0,0,0,1,1,4,0,4,4,0,no
6,1,0,0,0,1,1,1,6,0,6,6,0,no
5,2,0,0,0,0,1,1,5,0,5,5,0,no
11,1,4,1,4,0,1,1,11,0,11,11,0,no
19,1,4,2,0,4,2,1,19,0,16,9.5,0,no
13,1,2,1,2,2,1,1,13,0,13,13,0,no
5,2,0,0,0,0,1,1,5,0,5,5,0,no
5,2,1,1,0,0,1,1,5,0,5,5,0,no
3,1,0,0,0,0,1,1,3,0,3,3,0,no
3,1,0,0,0,0,1,1,3,0,3,3,0,no
3,1,0,0,0,0,1,1,3,0,3,3,0,no
3,1,0,0,0,0,1,1,3,0,3,3,0,no
0,1,0,0,0,0,1,1,0,0,0,0,0,no
0,1,0,0,0,0,1,1,0,0,0,0,0,no
15,2,1,1,1,4,1,1,15,0,15,15,0,no
3,1,0,0,0,0,1,1,3,0,3,3,0,no
3,0,0,0,0,0,1,1,3,0,3,3,0,no
25,2,6,3,2,4,2,2,26,1,25,13.5,1,no
3,3,0,0,0,0,1,1,3,0,3,3,0,no
45,4,10,3,2,7,2,2,46,1,45,23.5,1,no
5,5,2,0,0,2,1,1,5,0,5,5,0,no
41,1,8,2,3,8,2,2,42,1,41,21.5,1,no
3,3,0,0,0,0,1,1,3,0,3,3,0,no
3,0,0,0,0,0,1,1,3,0,3,3,0,no
12,0,3,3,0,1,1,1,12,0,12,12,0,no
24,1,4,3,0,5,2,2,25,1,24,13,1,no
9,3,2,1,0,2,1,1,9,0,9,9,0,no
3,0,0,0,0,0,1,1,3,0,3,3,0,no
6,1,0,0,0,1,1,1,6,0,6,6,0,no
10,2,0,0,0,2,1,1,10,0,10,10,0,no
7,2,0,0,0,1,1,1,7,0,7,7,0,no
3,1,0,0,0,0,1,1,3,0,3,3,0,no
9,3,2,1,0,2,1,1,9,0,9,9,0,no
3,0,0,0,0,0,1,1,3,0,3,3,0,no
6,1,0,0,0,1,1,1,6,0,6,6,0,no
13,2,0,0,0,3,1,1,13,0,13,13,0,no
7,2,0,0,0,1,1,1,7,0,7,7,0,no
0,3,0,0,0,0,1,1,0,0,0,0,0,no
0,0,0,0,0,0,1,1,0,0,0,0,0,no
0,1,0,0,0,0,1,1,0,0,0,0,0,no
0,2,0,0,0,0,1,1,0,0,0,0,0,no
0,2,0,0,0,0,1,1,0,0,0,0,0,no
8,0,0,0,0,0,1,1,8,0,8,8,0,no
3,0,0,0,0,0,1,1,3,0,3,3,0,no
13,2,4,4,1,1,1,1,13,0,13,13,1,no
20,1,5,3,4,3,1,1,20,0,20,20,0,no
3,0,0,0,0,0,1,1,0,3,3,3,0,no
5,1,0,0,1,0,0,0,0,0,0,0,0,no
14,0,2,1,0,1,2,2,2,2,2,2,1,no
23,1,4,2,2,3,1,1,10,0,10,10,0,yes
20,1,2,2,0,1,3,2,20,0,18,6.666667,0,no
17,1,2,1,0,1,5,4,4,3,2,1.4,0,yes
3,0,0,0,0,0,0,0,0,0,0,0,0,no
38,2,6,4,2,8,2,2,2,2,2,2,1,no
5,1,1,1,0,0,1,1,5,0,5,5,1,no
9,0,2,2,0,0,1,1,9,0,9,9,1,no
13,1,2,1,3,1,0,0,0,0,0,0,0,no
3,0,0,0,0,0,0,0,0,0,0,0,0,no
3,1,0,0,0,0,1,1,3,0,3,3,0,no
3,0,0,0,0,0,1,1,3,0,3,3,1,no
3,0,0,0,0,0,1,1,3,0,3,3,0,no
7,2,1,1,0,1,0,0,0,0,0,0,0,no
2,0,0,0,0,0,1,1,2,0,2,2,0,no
23,3,6,2,1,1,1,1,23,0,23,23,0,no
11,2,1,1,2,1,1,1,11,0,11,11,0,no
9,1,1,1,0,1,1,1,9,0,9,9,0,no
13,0,3,1,0,0,1,1,13,0,13,13,0,no
0,4,0,0,1,0,1,1,0,0,0,0,0,no
17,2,3,1,0,3,1,1,17,0,17,17,0,no
7,2,1,1,1,2,1,1,7,0,7,7,1,no
6,0,1,1,0,0,0,0,0,0,0,0,0,no
6,1,1,1,0,0,0,0,0,0,0,0,0,no
5,0,1,1,1,1,0,0,0,0,0,0,0,no
3,1,0,0,0,0,0,0,0,0,0,0,0,no
3,2,0,0,0,0,0,0,0,0,0,0,0,no
4,2,0,0,0,0,1,1,4,0,4,4,1,no
8,2,0,0,0,0,1,1,8,0,8,8,1,yes
0,2,0,0,0,0,1,1,0,0,0,0,1,no
3,0,0,0,0,0,1,1,3,0,3,3,1,no
14,5,3,3,0,1,1,1,14,0,14,14,0,no
11,4,2,1,0,1,1,1,11,0,11,11,0,no
15,1,2,2,1,2,1,1,15,0,15,15,0,no
12,2,2,1,0,1,1,1,12,0,12,12,0,no
7,0,1,1,1,0,1,1,1,1,2,2,0,no
0,0,0,0,0,0,0,0,0,0,0,0,0,no
3,0,0,0,0,0,1,1,3,0,3,3,0,no
4,1,1,0,1,0,1,1,4,0,4,4,0,no
3,2,0,0,0,0,1,1,3,0,3,3,0,no
3,1,1,0,0,0,1,1,3,0,3,3,0,no
23,0,5,2,0,2,1,1,23,0,23,23,0,no
3,2,0,0,0,0,1,1,3,0,3,3,0,no
5,3,0,0,0,1,1,1,5,0,5,5,0,no
3,1,0,0,0,0,1,1,3,0,3,3,0,no
3,1,2,0,0,0,1,1,3,0,3,3,0,no
0,0,0,0,0,0,1,1,0,0,0,0,0,no
3,0,0,0,0,0,1,1,3,0,3,3,0,no
3,0,1,0,1,0,1,1,3,0,3,3,0,no
3,0,1,0,1,0,1,1,3,0,3,3,0,no
3,1,1,0,1,0,1,1,3,0,3,3,0,no
6,0,1,1,0,0,1,1,6,0,6,6,0,no
3,0,0,0,0,0,1,1,3,0,3,3,0,no
8,1,1,1,0,2,1,1,8,0,8,8,0,no
4,1,1,0,0,1,1,1,4,0,4,4,0,no
3,1,1,0,1,0,1,1,3,0,3,3,0,no
7,2,3,1,2,0,1,1,7,0,7,7,0,no
6,3,0,0,0,2,1,1,6,0,6,6,0,no
3,2,2,0,0,0,1,1,3,0,3,3,0,no
3,2,1,0,0,0,1,1,3,0,3,3,0,no
3,1,1,0,1,0,1,1,3,0,3,3,0,no
11,0,2,2,0,1,1,1,11,0,11,11,0,no
3,0,0,0,0,0,1,1,3,0,3,3,0,no
20,0,3,2,1,3,1,1,20,0,20,20,0,no
3,0,0,0,0,0,1,1,3,0,3,3,0,no
0,1,0,0,0,0,1,1,0,0,0,0,0,no
6,0,1,1,1,0,1,1,6,0,6,6,0,no
85,0,15,2,5,9,1,1,85,0,85,85,0,no
3,1,0,0,0,0,1,1,3,0,3,3,0,no
3,0,0,0,0,0,1,1,3,0,3,3,0,no
3,1,0,0,0,0,1,1,3,0,3,3,0,no
12,0,2,2,1,1,1,1,12,0,12,12,0,no
4,2,0,0,0,0,1,1,4,0,4,4,0,no
3,0,0,0,0,0,1,1,3,0,3,3,0,no
3,1,0,0,0,0,1,1,3,0,3,3,0,no
3,2,0,0,0,0,1,1,3,0,3,3,0,no
3,3,0,0,0,0,1,1,3,0,3,3,0,no
10,4,2,1,0,0,1,1,10,0,10,10,0,no
3,0,0,0,0,0,1,1,3,0,3,3,0,no
3,0,0,0,0,0,1,1,3,0,3,3,0,no
3,0,1,0,0,0,1,1,3,0,3,3,0,no
8,1,1,1,0,2,1,1,8,0,8,8,0,no
13,0,2,2,0,3,1,1,13,0,13,13,0,no
3,1,0,0,0,0,1,1,3,0,3,3,0,no
11,0,2,2,0,1,1,1,11,0,11,11,0,no
5,0,0,0,0,0,0,0,0,0,0,0,0,no
8,1,0,1,0,0,0,0,0,0,0,0,0,no
8,2,0,1,0,0,0,0,0,0,0,0,0,no
10,1,0,1,0,0,0,0,0,0,0,0,0,no
22,0,2,2,0,1,0,0,0,0,0,0,0,no
3,1,0,0,0,0,1,1,3,0,3,3,0,no
9,1,1,1,0,1,1,1,9,0,9,9,0,no
3,1,0,0,0,0,1,1,3,0,3,3,1,no
6,1,0,0,0,2,1,1,6,0,6,6,0,no
3,1,0,0,0,0,0,0,0,0,0,0,0,no
14,1,2,1,2,3,0,0,0,0,0,0,0,no
8,1,1,1,0,1,1,1,11,0,11,11,0,no
11,1,2,2,0,2,1,1,11,0,11,11,0,no
0,1,0,0,1,0,1,1,0,0,0,0,0,no
0,1,0,0,1,0,1,1,0,0,0,0,0,no
3,1,0,0,0,0,1,1,3,0,3,3,0,no
9,2,2,1,0,0,1,1,9,0,9,9,0,no
10,1,1,1,0,1,1,1,10,0,10,10,0,no
22,7,2,1,0,1,1,1,22,0,22,22,1,no
11,2,2,1,0,1,1,1,11,0,11,11,1,no
15,5,1,1,0,2,2,1,15,0,13,7.5,1,no
25,2,3,1,0,1,1,1,25,0,25,25,0,no
23,3,2,1,2,0,1,1,23,0,23,23,0,no
18,3,2,1,2,0,1,1,18,0,18,18,0,no
8,4,1,1,1,0,1,1,8,0,8,8,0,no
10,2,1,1,0,0,1,1,10,0,10,10,0,no
17,4,2,1,0,1,2,1,17,0,16,8.5,1,no
7,4,1,1,0,0,2,1,8,1,7,4.5,1,no
4,4,0,0,0,0,1,1,4,0,4,4,1,no
3,1,0,0,0,0,1,1,3,0,3,3,0,no
10,2,2,1,0,1,1,1,10,0,10,10,0,no
4,1,0,0,0,1,1,1,4,0,4,4,0,no
3,1,0,0,0,0,1,1,3,0,3,3,0,no
17,2,4,2,4,3,1,1,17,0,17,17,0,no
3,1,0,0,0,0,1,1,3,0,3,3,0,no
29,2,6,2,1,5,1,1,29,0,29,29,0,no
13,1,3,3,0,3,1,1,13,0,13,13,0,no
9,1,1,1,1,3,1,1,9,0,9,9,0,no
15,0,2,2,0,1,1,1,15,0,15,15,0,no
10,0,1,1,0,1,1,1,10,0,10,10,0,no
14,2,1,1,0,4,1,1,14,0,14,14,0,no
0,1,0,0,1,0,1,1,0,0,0,0,0,no
6,1,1,1,0,0,1,1,6,0,6,6,1,no
9,1,2,1,0,0,1,1,9,0,9,9,1,no
4,2,0,0,0,0,1,1,4,0,4,4,0,no
3,0,0,0,0,0,1,1,3,0,3,3,0,no
3,0,0,0,0,0,1,1,3,0,3,3,0,no
3,1,0,0,0,0,1,1,3,0,3,3,0,no
3,1,0,0,0,0,1,1,3,0,3,3,0,no
3,1,0,0,0,0,1,1,3,0,3,3,1,no
3,0,0,0,0,0,1,1,3,0,3,3,1,no
20,1,5,1,2,0,2,2,20,0,18,10,1,no
5,0,1,1,0,0,1,1,5,0,5,5,1,no
3,0,0,0,0,0,1,1,3,0,3,3,0,no
4,1,0,0,0,0,2,2,5,1,4,3,0,no
7,0,1,1,0,0,1,1,7,0,7,7,0,no
31,1,5,2,1,9,2,2,32,1,31,16.5,0,no
6,0,1,1,0,1,1,1,6,0,6,6,0,no
4,2,0,0,0,0,1,1,4,0,4,4,0,no
2,0,0,0,0,0,1,1,2,0,2,2,0,no
3,1,0,0,0,0,1,1,3,0,3,3,0,no
3,1,0,0,0,0,1,1,3,0,3,3,0,no
13,0,1,1,1,7,1,1,13,0,13,13,0,yes
4,2,0,0,0,0,1,1,4,0,4,4,0,no
26,1,0,0,0,2,1,1,26,0,26,26,0,no
5,1,0,0,0,2,1,1,5,0,5,5,0,no
10,2,0,0,0,1,1,1,10,0,10,10,0,no
9,1,1,1,0,1,1,1,9,0,9,9,0,no
3,1,0,0,0,0,1,1,3,0,3,3,0,no
4,0,0,0,0,1,1,1,4,0,4,4,0,no
3,0,0,0,0,0,1,1,3,0,3,3,0,no
3,0,0,0,0,0,1,1,3,0,3,3,0,no
3,0,0,0,0,0,1,1,3,0,3,3,0,no
3,0,0,0,0,0,1,1,3,0,3,3,0,no
3,1,0,0,0,0,1,1,3,0,3,3,0,no
3,1,0,0,0,0,1,1,3,0,3,3,0,no
3,0,0,0,0,0,1,1,3,0,3,3,0,no
3,0,0,0,0,0,1,1,3,0,3,3,0,no
3,0,0,0,0,0,1,1,3,0,3,3,0,no
3,0,0,0,0,0,1,1,3,0,3,3,0,no
7,2,0,0,0,0,1,1,7,0,7,7,0,no
6,0,0,0,0,0,1,1,6,0,6,6,0,no
4,1,0,0,0,0,1,1,4,0,4,4,0,no
4,1,0,0,0,0,1,1,4,0,4,4,0,no
3,1,0,0,0,0,1,1,3,0,3,3,0,no
14,0,1,1,0,8,1,1,14,0,14,14,0,no
4,0,0,0,1,1,1,1,4,0,4,4,0,no
3,1,0,0,0,0,1,1,3,0,3,3,0,no
7,1,1,1,0,2,1,1,7,0,7,7,0,no
8,1,2,1,0,0,1,1,8,0,8,8,0,yes
5,0,1,1,0,0,1,1,5,0,5,5,0,no
4,2,0,0,0,0,1,1,4,0,4,4,0,no
3,1,0,0,0,0,1,1,3,0,3,3,0,no
3,1,0,0,0,0,1,1,3,0,3,3,0,no
3,1,0,0,0,0,1,1,3,0,3,3,0,no
9,2,0,0,0,1,1,1,9,0,9,9,0,no
3,1,0,0,0,0,1,1,3,0,3,3,0,no
3,0,0,0,0,0,1,1,3,0,3,3,0,no
5,1,0,0,0,0,1,1,5,0,5,5,0,no
3,1,0,0,0,0,1,1,3,0,3,3,0,no
3,0,0,0,0,0,1,1,3,0,3,3,0,no
3,0,0,0,0,0,1,1,3,0,3,3,0,no
3,0,0,0,0,0,1,1,3,0,3,3,0,no
3,0,0,0,0,0,1,1,3,0,3,3,0,no
4,0,0,0,0,0,1,1,4,0,4,4,0,no
5,1,0,0,0,0,1,1,5,0,5,5,0,no
17,0,0,0,0,3,1,1,17,0,17,17,0,no
6,0,1,1,0,0,1,1,6,0,6,6,0,no
3,0,0,0,0,0,1,1,3,0,3,3,0,no
3,1,0,0,0,0,1,1,3,0,3,3,0,no
2,0,0,0,0,0,1,1,2,0,2,2,0,no
3,1,0,0,0,0,1,1,3,0,3,3,0,no
3,1,0,0,0,0,1,1,3,0,3,3,0,no
17,0,2,2,1,8,1,1,17,0,17,17,0,no
3,1,0,0,0,0,1,1,3,0,3,3,0,no
3,1,0,0,0,0,1,1,3,0,3,3,0,no
3,1,0,0,0,0,1,1,3,0,3,3,0,no
3,1,0,0,1,0,1,1,3,0,3,3,0,no
8,2,0,0,0,0,1,1,8,0,8,8,0,no
9,1,1,1,0,1,1,1,9,0,9,9,0,no
3,0,0,0,0,0,1,1,3,0,3,3,0,no
3,1,0,0,0,0,1,1,3,0,3,3,0,no
12,1,3,2,0,0,1,1,12,0,12,12,0,no
9,0,2,2,0,0,1,1,9,0,9,9,0,no
0,1,0,0,1,0,1,1,0,0,0,0,0,no
0,0,0,0,1,0,1,1,0,0,0,0,0,no
0,0,0,0,1,0,1,1,0,0,0,0,0,no
0,0,0,0,1,0,1,1,0,0,0,0,0,no
0,0,0,0,1,0,1,1,0,0,0,0,0,no
0,0,0,0,1,0,1,1,0,0,0,0,0,no
0,0,0,0,1,0,1,1,0,0,0,0,0,no
3,1,0,0,0,0,1,1,3,0,3,3,0,no
3,1,0,0,0,0,1,1,3,0,3,3,0,no
2,2,0,0,0,0,1,1,2,0,2,2,0,no
3,1,0,0,0,0,1,1,3,0,3,3,0,no
2,1,0,0,0,0,1,1,2,0,2,2,0,no
2,0,0,0,0,0,1,1,2,0,2,2,0,no
2,0,0,0,0,0,1,1,2,0,2,2,0,no
3,0,0,0,0,0,1,1,3,0,3,3,0,no
2,0,0,0,0,0,1,1,2,0,2,2,0,no
2,0,0,0,0,0,1,1,2,0,2,2,0,no
2,1,0,0,0,0,1,1,2,0,2,2,0,no
2,1,0,0,0,0,1,1,2,0,2,2,0,no
3,0,0,0,0,0,1,1,3,0,3,3,0,no
3,1,0,0,0,0,1,1,3,0,3,3,0,no
2,1,0,0,0,0,1,1,2,0,2,2,0,no
2,0,0,0,0,0,1,1,2,0,2,2,0,no
6,4,0,0,0,0,1,1,6,0,6,6,0,no
3,0,0,0,0,0,1,1,3,0,3,3,0,no
3,0,0,0,0,0,1,1,3,0,3,3,0,no
3,0,0,0,0,0,1,1,3,0,3,3,0,no
3,0,0,0,0,0,1,1,3,0,3,3,0,no
3,0,0,0,0,0,1,1,3,0,3,3,0,no
3,0,0,0,0,0,1,1,3,0,3,3,0,no
3,0,0,0,0,0,1,1,3,0,3,3,0,no
3,0,0,0,0,0,1,1,3,0,3,3,0,no
3,0,0,0,0,0,1,1,3,0,3,3,0,no
0,0,0,0,1,0,1,1,0,0,0,0,0,no
0,1,0,0,1,0,1,1,0,0,0,0,0,no
0,1,0,0,1,0,1,1,0,0,0,0,0,no
0,0,0,0,1,0,1,1,0,0,0,0,0,no
3,0,0,0,0,0,1,1,3,0,3,3,0,no
21,1,6,2,4,3,1,1,21,0,21,21,0,no
0,1,0,0,1,0,1,1,0,0,0,0,0,no
0,1,0,0,1,0,1,1,0,0,0,0,0,no
0,2,0,0,1,0,1,1,0,0,0,0,0,no
0,1,0,0,1,0,1,1,0,0,0,0,0,no
0,1,0,0,1,0,1,1,0,0,0,0,0,no
0,1,0,0,1,0,1,1,0,0,0,0,0,no
0,0,0,0,1,0,1,1,0,0,0,0,0,no
4,0,0,0,0,0,1,1,4,0,4,4,0,no
4,2,0,0,0,0,1,1,4,0,4,4,0,no
7,1,1,1,1,0,1,1,7,0,7,7,0,no
52,0,12,5,8,4,1,1,52,0,52,52,0,no
3,4,0,0,0,0,1,1,3,0,3,3,0,no
3,4,0,0,0,0,1,1,3,0,3,3,0,no
3,4,0,0,0,0,1,1,3,0,3,3,0,no
3,5,0,0,0,0,1,1,3,0,3,3,0,no
0,1,0,0,0,0,1,1,0,0,0,0,0,no
3,2,0,0,0,0,1,1,3,0,3,3,0,no
21,3,5,2,4,2,1,1,21,0,21,21,0,no
0,3,0,0,0,0,1,1,0,0,0,0,0,no
0,0,0,0,0,0,1,1,0,0,0,0,0,no
0,2,0,0,0,0,1,1,0,0,0,0,0,no
0,0,0,0,0,0,1,1,0,0,0,0,0,no
8,0,2,2,1,0,1,1,8,0,8,8,0,no
3,0,0,0,0,0,1,1,3,0,3,3,0,no
3,0,0,0,0,0,1,1,3,0,3,3,0,no
3,0,0,0,0,0,1,1,3,0,3,3,0,no
3,0,0,0,0,0,1,1,3,0,3,3,0,no
3,0,0,0,0,0,1,1,3,0,3,3,0,no
6,0,1,1,1,0,1,1,6,0,6,6,0,no
3,0,0,0,0,0,1,1,3,0,3,3,0,no
7,1,1,1,1,0,1,1,7,0,7,7,0,no
5,1,0,0,0,0,1,1,5,0,5,5,0,no
12,1,3,1,3,0,1,1,12,0,12,12,0,no
3,1,0,0,0,0,1,1,3,0,3,3,0,no
47,0,11,4,8,4,1,1,47,0,47,47,0,no
46,0,11,4,8,4,1,1,46,0,46,46,0,no
3,0,0,0,0,0,1,1,3,0,3,3,0,no
3,0,0,0,0,0,1,1,3,0,3,3,0,no
3,0,0,0,0,0,1,1,3,0,3,3,0,no
3,0,0,0,0,0,1,1,3,0,3,3,0,no
3,0,0,0,0,0,1,1,3,0,3,3,0,no
3,0,0,0,0,0,1,1,3,0,3,3,0,no
3,0,0,0,0,0,1,1,3,0,3,3,0,no
3,0,0,0,0,0,1,1,3,0,3,3,0,no
3,1,0,0,1,0,1,1,3,0,3,3,0,no
3,1,0,0,0,0,1,1,3,0,3,3,0,no
8,2,1,1,0,1,1,1,8,0,8,8,0,no
11,0,2,2,1,4,1,1,11,0,11,11,0,no
10,2,0,0,0,1,1,1,10,0,10,10,0,no
3,0,0,0,0,0,1,1,3,0,3,3,0,no
3,1,0,0,0,0,1,1,3,0,3,3,0,no
3,1,0,0,0,0,1,1,3,0,3,3,0,no
3,0,0,0,0,0,1,1,3,0,3,3,0,no
3,1,0,0,0,0,1,1,3,0,3,3,0,no
3,0,0,0,0,0,1,1,3,0,3,3,0,no
3,0,0,0,0,0,1,1,3,0,3,3,0,no
3,2,0,0,0,0,1,1,3,0,3,3,0,no
3,1,0,0,0,0,1,1,3,0,3,3,0,no
3,1,0,0,0,0,1,1,3,0,3,3,0,no
3,0,0,0,0,0,1,1,3,0,3,3,0,no
3,0,0,0,0,0,1,1,3,0,3,3,0,no
4,1,0,0,0,1,1,1,4,0,4,4,0,no
10,2,0,0,0,1,1,1,10,0,10,10,0,no
3,1,0,0,0,0,1,1,3,0,3,3,0,no
5,1,1,1,1,2,1,1,5,0,5,5,0,no
3,0,0,0,0,0,1,1,3,0,3,3,0,no
3,1,0,0,0,0,1,1,3,0,3,3,0,no
3,1,0,0,0,0,1,1,3,0,3,3,0,no
3,0,0,0,0,0,1,1,3,0,3,3,0,no
3,0,0,0,0,0,1,1,3,0,3,3,0,no
6,1,1,1,1,0,1,1,6,0,6,6,0,no
3,1,0,0,0,0,1,1,3,0,3,3,0,no
3,1,0,0,0,0,1,1,3,0,3,3,0,no
3,0,0,0,0,0,1,1,3,0,3,3,0,no
3,0,0,0,0,0,1,1,3,0,3,3,0,no
3,1,0,0,0,0,1,1,3,0,3,3,0,no
4,1,0,0,0,1,1,1,4,0,4,4,0,no
0,1,0,0,1,0,1,1,0,0,0,0,0,no
0,0,0,0,1,0,1,1,0,0,0,0,0,no
0,1,0,0,1,0,1,1,0,0,0,0,0,no
0,2,0,0,1,0,1,1,0,0,0,0,0,no
0,2,0,0,1,0,1,1,0,0,0,0,0,no
0,4,0,0,1,0,1,1,0,0,0,0,0,no
0,1,0,0,1,0,1,1,0,0,0,0,0,no
0,2,0,0,1,0,1,1,0,0,0,0,0,no
0,3,0,0,1,0,1,1,0,0,0,0,0,no
0,1,0,0,1,0,1,1,0,0,0,0,0,no
0,0,0,0,1,0,1,1,0,0,0,0,0,no
0,0,0,0,1,0,1,1,0,0,0,0,0,no
0,1,0,0,1,0,1,1,0,0,0,0,0,no
0,1,0,0,1,0,1,1,0,0,0,0,0,no
0,3,0,0,1,0,1,1,0,0,0,0,0,no
0,3,0,0,1,0,1,1,0,0,0,0,0,no
0,1,0,0,1,0,1,1,0,0,0,0,0,no
0,1,0,0,1,0,1,1,0,0,0,0,0,no
0,1,0,0,1,0,1,1,0,0,0,0,0,no
0,1,0,0,1,0,1,1,0,0,0,0,0,no
0,2,0,0,1,0,1,1,0,0,0,0,0,no
0,1,0,0,1,0,1,1,0,0,0,0,0,no
0,0,0,0,1,0,1,1,0,0,0,0,0,no
0,2,0,0,1,0,1,1,0,0,0,0,0,no
0,2,0,0,1,0,1,1,0,0,0,0,0,no
0,0,0,0,1,0,1,1,0,0,0,0,0,no
0,2,0,0,1,0,1,1,0,0,0,0,0,no
0,2,0,0,1,0,1,1,0,0,0,0,0,no
0,2,0,0,1,0,1,1,0,0,0,0,0,no
0,2,0,0,1,0,1,1,0,0,0,0,0,no
3,1,0,0,0,0,1,1,3,0,3,3,0,no
10,1,4,1,4,1,1,1,10,0,10,10,0,no
3,0,0,0,0,0,1,1,3,0,3,3,0,no
3,0,1,0,0,0,1,1,3,0,3,3,0,no
3,1,0,0,0,0,1,1,3,0,3,3,0,no
3,0,0,0,0,0,1,1,3,0,3,3,0,no
13,3,2,2,0,0,1,1,13,0,13,13,0,no
9,1,3,1,3,0,1,1,9,0,9,9,0,no
3,1,0,0,0,0,1,1,3,0,3,3,0,no
12,1,0,0,0,0,1,1,12,0,12,12,0,no
12,1,0,0,0,0,1,1,12,0,12,12,0,no
70,0,18,5,9,6,2,2,71,1,70,36,1,no
7,0,2,1,2,0,1,1,7,0,7,7,0,no
25,0,6,3,3,4,1,1,25,0,25,25,0,no
5,1,1,1,1,0,1,1,5,0,5,5,0,no
5,2,1,1,1,0,1,1,5,0,5,5,0,no
5,0,1,1,1,0,1,1,5,0,5,5,0,no
8,1,2,1,2,0,2,2,9,1,8,5,1,no
8,2,2,1,2,0,2,2,9,1,8,5,1,no
8,3,2,1,2,0,2,2,9,1,8,5,1,no
10,2,3,1,0,0,1,1,10,0,10,10,0,no
10,4,3,1,0,0,1,1,10,0,10,10,0,no
11,2,3,1,3,0,2,2,12,1,11,6.5,1,no
11,4,3,1,3,0,2,2,12,1,11,6.5,1,no
5,0,1,1,1,0,1,1,5,0,5,5,0,no
5,0,1,1,1,0,1,1,5,0,5,5,0,no
5,0,1,1,1,0,1,1,5,0,5,5,0,no
5,1,1,1,1,0,1,1,5,0,5,5,0,no
6,1,1,1,1,0,1,1,6,0,6,6,0,no
10,2,3,1,0,0,1,1,10,0,10,10,0,no
8,1,2,1,2,0,2,2,9,1,8,5,1,no
5,1,1,1,1,0,1,1,5,0,5,5,0,no
3,1,0,0,0,0,1,1,3,0,3,3,0,no
3,2,0,0,0,0,1,1,3,0,3,3,0,no
3,1,0,0,0,0,1,1,3,0,3,3,0,no
5,0,1,1,1,0,1,1,5,0,5,5,0,no
10,1,0,0,0,2,1,1,10,0,10,10,0,no
8,1,2,1,2,0,2,2,9,1,8,5,1,no
8,3,2,1,2,0,2,2,9,1,8,5,1,no
10,3,3,1,0,0,1,1,10,0,10,10,0,no
5,0,1,1,1,0,1,1,5,0,5,5,0,no
5,0,1,1,1,0,1,1,5,0,5,5,0,no
5,0,1,1,1,0,1,1,5,0,5,5,0,no
5,1,1,1,1,0,1,1,5,0,5,5,0,no
8,1,2,1,2,0,2,2,9,1,8,5,1,no
3,0,0,0,0,0,1,1,3,0,3,3,0,no
36,4,10,4,6,3,1,1,36,0,36,36,0,no
103,3,31,5,13,10,1,1,103,0,103,103,0,no
19,1,6,3,2,0,1,1,19,0,19,19,0,no
6,3,0,0,0,1,1,1,6,0,6,6,0,no
5,1,0,0,0,0,1,1,5,0,5,5,0,no
8,0,2,2,1,0,1,1,8,0,8,8,0,no
3,1,0,0,0,0,1,1,3,0,3,3,0,no
3,1,0,0,0,0,1,1,3,0,3,3,0,no
3,0,0,0,0,0,1,1,3,0,3,3,0,no
3,0,0,0,0,0,1,1,3,0,3,3,0,no
3,0,0,0,0,0,1,1,3,0,3,3,0,no
10,2,3,1,0,0,1,1,10,0,10,10,0,no
3,0,0,0,0,0,1,1,3,0,3,3,0,no
5,2,1,1,1,0,1,1,5,0,5,5,0,no
3,0,0,0,0,0,1,1,3,0,3,3,0,no
3,2,0,0,0,0,1,1,3,0,3,3,0,no
3,2,0,0,0,0,1,1,3,0,3,3,0,no
24,1,7,2,5,3,1,1,24,0,24,24,0,no
3,0,0,0,0,0,1,1,3,0,3,3,0,no
3,1,0,0,0,0,1,1,3,0,3,3,0,no
3,1,0,0,0,0,1,1,3,0,3,3,0,no
17,2,4,1,3,2,1,1,17,0,17,17,0,no
7,0,2,1,2,0,1,1,7,0,7,7,0,no
3,1,0,0,0,0,1,1,3,0,3,3,0,no
3,2,0,0,0,0,1,1,3,0,3,3,0,no
61,4,21,4,12,2,1,1,61,0,61,61,0,no
3,1,0,0,0,0,1,1,3,0,3,3,0,no
3,2,0,0,0,0,1,1,3,0,3,3,0,no
9,0,3,1,3,0,1,1,9,0,9,9,0,no
8,0,0,0,0,1,1,1,8,0,8,8,0,no
11,1,3,1,3,3,1,1,11,0,11,11,0,no
55,0,14,5,10,4,1,1,55,0,55,55,0,no
8,1,2,1,1,0,1,1,8,0,8,8,0,no
79,0,20,5,8,7,1,1,79,0,79,79,0,no
64,0,15,5,8,6,1,1,64,0,64,64,0,no
3,2,0,0,0,0,1,1,3,0,3,3,0,no
3,2,0,0,0,0,1,1,3,0,3,3,0,no
2,0,0,0,0,0,1,1,2,0,2,2,0,no
7,1,2,1,2,0,1,1,7,0,7,7,0,no
3,1,0,0,0,0,1,1,3,0,3,3,0,no
20,4,5,2,2,1,1,1,20,0,20,20,0,no
3,1,0,0,0,0,1,1,3,0,3,3,0,no
6,1,1,1,1,1,1,1,6,0,6,6,0,no
3,2,0,0,0,0,1,1,3,0,3,3,0,no
3,0,0,0,0,0,1,1,3,0,3,3,0,no
3,0,0,0,0,0,1,1,3,0,3,3,0,no
3,0,0,0,0,0,1,1,3,0,3,3,0,no
3,0,0,0,0,0,1,1,3,0,3,3,0,no
3,0,0,0,0,0,1,1,3,0,3,3,0,no
7,2,1,1,0,0,1,1,7,0,7,7,0,no
12,1,4,1,5,1,1,1,12,0,12,12,0,no
5,0,0,0,0,1,1,1,5,0,5,5,0,no
3,0,0,0,0,0,1,1,3,0,3,3,0,no
3,0,0,0,0,0,1,1,3,0,3,3,0,no
8,0,0,0,0,1,1,1,8,0,8,8,0,no
5,3,0,0,0,0,1,1,5,0,5,5,0,no
9,0,0,0,0,1,1,1,9,0,9,9,0,no
0,0,0,0,1,0,1,1,0,0,0,0,0,no
0,0,0,0,1,0,1,1,0,0,0,0,0,no
3,1,0,0,0,0,1,1,3,0,3,3,0,no
10,4,3,1,0,0,1,1,10,0,10,10,0,no
14,3,3,1,1,2,1,1,14,0,14,14,0,no
6,0,0,0,0,1,1,1,6,0,6,6,0,no
9,1,1,1,0,1,1,1,9,0,9,9,0,no
3,0,0,0,0,0,1,1,3,0,3,3,0,no
3,0,0,0,0,0,1,1,3,0,3,3,0,no
11,1,2,1,0,0,1,1,11,0,11,11,0,no
11,1,2,1,0,0,1,1,11,0,11,11,0,no
3,2,0,0,0,0,1,1,3,0,3,3,0,no
9,2,1,1,0,1,1,1,9,0,9,9,0,no
3,2,0,0,0,0,1,1,3,0,3,3,0,no
36,4,9,4,2,3,1,1,36,0,36,36,0,no
7,2,1,1,0,0,1,1,7,0,7,7,0,no
12,1,4,1,5,1,1,1,12,0,12,12,0,no
5,0,0,0,0,1,1,1,5,0,5,5,0,no
3,0,0,0,0,0,1,1,3,0,3,3,0,no
3,0,0,0,0,0,1,1,3,0,3,3,0,no
8,0,0,0,0,1,1,1,8,0,8,8,0,no
0,0,0,0,1,0,1,1,0,0,0,0,0,no
0,0,0,0,1,0,1,1,0,0,0,0,0,no
0,0,0,0,1,0,1,1,0,0,0,0,0,no
5,2,0,0,0,0,1,1,5,0,5,5,0,no
5,2,0,0,0,0,1,1,5,0,5,5,0,no
9,0,2,2,0,0,1,1,9,0,9,9,0,no
7,1,2,2,1,0,1,1,7,0,7,7,0,no
13,0,2,2,0,1,1,1,13,0,13,13,0,no
3,0,0,0,0,0,1,1,3,0,3,3,0,no
20,0,4,4,0,1,1,1,20,0,20,20,0,no
9,0,0,0,0,1,1,1,9,0,9,9,0,no
5,3,0,0,0,0,1,1,5,0,5,5,0,no
7,0,1,1,2,1,1,1,7,0,7,7,0,no
3,0,0,0,0,0,1,1,3,0,3,3,0,no
2,0,0,0,0,0,1,1,2,0,2,2,0,no
9,0,0,0,0,1,1,1,9,0,9,9,0,no
4,2,0,0,0,0,1,1,4,0,4,4,0,no
3,0,0,0,0,0,1,1,3,0,3,3,0,no
3,0,0,0,0,0,1,1,3,0,3,3,0,no
3,0,0,0,0,0,1,1,3,0,3,3,0,no
3,0,0,0,0,0,1,1,3,0,3,3,0,no
3,0,0,0,0,0,1,1,3,0,3,3,0,no
3,0,0,0,0,0,1,1,3,0,3,3,0,no
3,0,0,0,0,0,1,1,3,0,3,3,0,no
3,1,0,0,0,0,1,1,3,0,3,3,0,no
7,0,0,0,0,1,1,1,7,0,7,7,0,no
20,2,4,3,3,4,1,1,20,0,20,20,0,no
5,3,0,0,0,0,1,1,5,0,5,5,0,no
3,0,0,0,0,0,1,1,3,0,3,3,0,no
3,0,0,0,0,0,1,1,3,0,3,3,0,no
3,0,0,0,0,0,1,1,3,0,3,3,0,no
3,0,0,0,0,0,1,1,3,0,3,3,0,no
3,1,0,0,1,0,1,1,3,0,3,3,0,no
3,1,0,0,0,0,1,1,3,0,3,3,0,no
6,1,1,1,1,1,1,1,6,0,6,6,0,no
6,1,1,1,1,1,1,1,6,0,6,6,0,no
6,1,1,1,0,0,1,1,6,0,6,6,0,no
3,1,0,0,0,0,1,1,3,0,3,3,0,no
27,2,4,1,2,5,1,1,27,0,27,27,0,no
4,1,0,0,0,0,1,1,4,0,4,4,0,no
17,4,2,2,1,1,1,1,17,0,17,17,0,no
6,6,0,0,0,0,1,1,6,0,6,6,0,no
6,0,0,0,0,0,1,1,6,0,6,6,0,no
3,3,0,0,0,0,1,1,3,0,3,3,0,no
12,0,1,1,1,2,1,1,12,0,12,12,0,no
5,0,1,1,1,0,1,1,5,0,5,5,0,no
3,0,0,0,0,0,1,1,3,0,3,3,0,no
5,0,1,1,1,0,1,1,5,0,5,5,0,no
3,0,0,0,0,0,1,1,3,0,3,3,0,no
11,0,2,1,2,1,1,1,11,0,11,11,0,no
11,0,2,1,2,1,1,1,11,0,11,11,0,no
11,1,2,1,2,1,1,1,11,0,11,11,0,no
11,2,2,1,2,1,1,1,11,0,11,11,0,no
11,0,2,1,2,1,1,1,11,0,11,11,0,no
11,0,2,1,2,1,1,1,11,0,11,11,0,no
11,0,2,1,2,1,1,1,11,0,11,11,0,no
11,0,2,1,2,1,1,1,11,0,11,11,0,no
11,0,2,1,2,1,1,1,11,0,11,11,0,no
11,0,2,1,2,1,1,1,11,0,11,11,0,no
11,0,2,1,2,1,1,1,11,0,11,11,0,no
11,0,2,1,2,1,1,1,11,0,11,11,0,no
11,0,2,1,2,1,1,1,11,0,11,11,0,no
13,0,2,1,2,1,1,1,13,0,13,13,0,no
11,1,2,1,2,1,1,1,11,0,11,11,0,no
11,1,2,1,2,1,1,1,11,0,11,11,0,no
11,1,2,1,2,1,1,1,11,0,11,11,0,no
11,3,2,1,2,1,1,1,11,0,11,11,0,no
11,1,2,1,2,1,1,1,11,0,11,11,0,no
11,1,2,1,2,1,1,1,11,0,11,11,0,no
11,1,2,1,2,1,1,1,11,0,11,11,0,no
11,1,2,1,2,1,1,1,11,0,11,11,0,no
11,1,2,1,2,1,1,1,11,0,11,11,0,no
33,1,12,11,2,1,1,1,33,0,33,33,0,no
11,1,2,1,2,1,1,1,11,0,11,11,0,no
11,1,2,1,2,1,1,1,11,0,11,11,0,no
4,1,0,0,0,0,1,1,4,0,4,4,0,no
3,0,0,0,0,0,1,1,3,0,3,3,0,no
5,0,0,0,0,1,1,1,5,0,5,5,0,no
3,0,0,0,0,0,1,1,3,0,3,3,0,no
3,0,0,0,0,0,1,1,3,0,3,3,0,no
3,1,0,0,0,0,1,1,3,0,3,3,0,no
5,2,1,1,1,0,1,1,5,0,5,5,0,no
3,0,0,0,0,0,1,1,3,0,3,3,0,no
3,0,0,0,0,0,1,1,3,0,3,3,0,no
3,0,0,0,0,0,1,1,3,0,3,3,0,no
3,0,0,0,0,0,1,1,3,0,3,3,0,no
3,0,0,0,0,0,1,1,3,0,3,3,0,no
3,0,0,0,0,0,1,1,3,0,3,3,0,no
3,0,0,0,0,0,1,1,3,0,3,3,0,no
3,0,0,0,0,0,1,1,3,0,3,3,0,no
3,0,0,0,0,0,1,1,3,0,3,3,0,no
4,0,0,0,0,0,1,1,4,0,4,4,0,no
5,1,0,0,0,0,1,1,5,0,5,5,0,no
4,0,0,0,0,0,1,1,4,0,4,4,0,no
3,1,0,0,0,0,1,1,3,0,3,3,0,no
3,1,0,0,0,0,1,1,3,0,3,3,0,no
3,1,0,0,0,0,1,1,3,0,3,3,0,no
3,3,0,0,0,0,1,1,3,0,3,3,0,no
3,1,0,0,0,0,1,1,3,0,3,3,0,no
3,1,0,0,0,0,1,1,3,0,3,3,0,no
3,1,0,0,0,0,1,1,3,0,3,3,0,no
3,1,0,0,0,0,1,1,3,0,3,3,0,no
3,1,0,0,0,0,1,1,3,0,3,3,0,no
3,1,0,0,0,0,1,1,3,0,3,3,0,no
3,1,0,0,0,0,1,1,3,0,3,3,0,no
15,2,3,2,1,3,1,1,15,0,15,15,0,no
4,1,0,0,0,0,1,1,4,0,4,4,0,no
5,4,0,0,0,0,1,1,5,0,5,5,0,no
11,6,1,1,1,1,1,1,11,0,11,11,0,no
5,0,0,0,0,0,1,1,5,0,5,5,0,no
3,3,0,0,0,0,1,1,3,0,3,3,0,no
12,0,1,1,1,2,1,1,12,0,12,12,0,no
3,1,0,0,0,0,1,1,3,0,3,3,0,no
3,1,0,0,0,0,1,1,3,0,3,3,0,no
3,1,0,0,0,0,1,1,3,0,3,3,0,no
3,1,0,0,0,0,1,1,3,0,3,3,0,no
3,1,0,0,0,0,1,1,3,0,3,3,0,no
3,1,0,0,0,0,1,1,3,0,3,3,0,no
3,1,0,0,0,0,1,1,3,0,3,3,0,no
3,0,0,0,0,0,1,1,3,0,3,3,0,no
3,1,0,0,0,0,1,1,3,0,3,3,0,no
3,0,0,0,0,0,1,1,3,0,3,3,0,no
3,1,0,0,0,0,1,1,3,0,3,3,0,no
3,1,0,0,0,0,1,1,3,0,3,3,0,no
3,1,0,0,0,0,1,1,3,0,3,3,0,no
3,0,0,0,0,0,1,1,3,0,3,3,0,no
3,1,0,0,0,0,1,1,3,0,3,3,0,no
5,0,1,1,1,0,1,1,5,0,5,5,0,no
7,2,2,1,2,0,1,1,7,0,7,7,0,no
7,2,2,1,2,0,1,1,7,0,7,7,0,no
7,2,2,1,2,0,1,1,7,0,7,7,0,no
7,4,2,1,2,0,1,1,7,0,7,7,0,no
7,2,2,1,2,0,1,1,7,0,7,7,0,no
7,2,2,1,2,0,1,1,7,0,7,7,0,no
7,2,2,1,2,0,1,1,7,0,7,7,0,no
7,2,2,1,2,0,1,1,7,0,7,7,0,no
7,2,2,1,2,0,1,1,7,0,7,7,0,no
7,2,2,1,2,0,1,1,7,0,7,7,0,no
7,2,2,1,2,0,1,1,7,0,7,7,0,no
7,2,2,1,2,0,1,1,7,0,7,7,0,no
28,2,3,2,3,4,1,1,28,0,28,28,0,no
7,1,0,0,0,0,1,1,7,0,7,7,0,no
29,4,10,1,10,0,1,1,29,0,29,29,0,no
29,6,9,1,7,1,1,1,29,0,29,29,0,no
3,0,0,0,0,0,1,1,3,0,3,3,0,no
4,1,1,1,1,0,1,1,4,0,4,4,0,no
2,0,0,0,0,0,1,1,2,0,2,2,0,no
4,0,0,0,0,0,1,1,4,0,4,4,0,no
6,3,1,1,0,0,1,1,6,0,6,6,0,no
8,0,1,1,0,1,1,1,8,0,8,8,0,no
3,0,0,0,0,0,1,1,3,0,3,3,0,no
3,2,0,0,0,0,1,1,3,0,3,3,0,no
4,1,0,0,0,0,1,1,4,0,4,4,0,no
3,2,0,0,0,0,1,1,3,0,3,3,0,no
4,1,0,0,0,0,1,1,4,0,4,4,0,no
3,2,0,0,0,0,1,1,3,0,3,3,0,no
4,1,0,0,0,0,1,1,4,0,4,4,0,no
3,2,0,0,0,0,1,1,3,0,3,3,0,no
4,1,0,0,0,0,1,1,4,0,4,4,0,no
3,2,0,0,0,0,1,1,3,0,3,3,0,no
4,1,0,0,0,0,1,1,4,0,4,4,0,no
3,0,0,0,0,0,1,1,3,0,3,3,0,no
3,0,0,0,0,0,1,1,3,0,3,3,0,no
3,0,0,0,0,0,1,1,3,0,3,3,0,no
3,0,0,0,0,0,1,1,3,0,3,3,0,no
3,0,0,0,0,0,1,1,3,0,3,3,0,no
3,0,0,0,0,0,1,1,3,0,3,3,0,no
3,0,0,0,0,0,1,1,3,0,3,3,0,no
3,0,0,0,0,0,1,1,3,0,3,3,0,no
3,0,0,0,0,0,1,1,3,0,3,3,0,no
3,0,0,0,0,0,1,1,3,0,3,3,0,no
3,0,0,0,0,0,1,1,3,0,3,3,0,no
5,0,1,1,1,0,1,1,5,0,5,5,0,no
3,2,0,0,0,0,1,1,3,0,3,3,0,no
4,1,0,0,0,0,1,1,4,0,4,4,0,no
4,1,0,0,0,0,1,1,4,0,4,4,0,no
3,0,0,0,0,0,1,1,3,0,3,3,0,no
35,1,15,2,14,1,1,1,35,0,35,35,0,no
3,0,0,0,0,0,1,1,3,0,3,3,0,no
3,2,0,0,0,0,1,1,3,0,3,3,0,no
4,1,0,0,0,0,1,1,4,0,4,4,0,no
3,0,0,0,0,0,1,1,3,0,3,3,0,no
3,2,0,0,0,0,1,1,3,0,3,3,0,no
4,1,0,0,0,0,1,1,4,0,4,4,0,no
3,0,0,0,0,0,1,1,3,0,3,3,0,no
11,0,3,1,4,1,1,1,11,0,11,11,0,no
3,0,0,0,0,0,1,1,3,0,3,3,0,no
33,1,11,3,8,3,1,1,33,0,33,33,0,no
5,1,1,1,1,0,1,1,5,0,5,5,0,no
2,0,0,0,0,0,1,1,2,0,2,2,0,no
8,2,2,1,2,0,1,1,8,0,8,8,0,no
8,2,2,1,2,0,1,1,8,0,8,8,0,no
8,2,2,1,2,0,1,1,8,0,8,8,0,no
8,2,2,1,2,0,1,1,8,0,8,8,0,no
8,2,2,1,2,0,1,1,8,0,8,8,0,no
10,1,1,1,0,0,1,1,10,0,10,10,0,no
3,1,0,0,0,0,1,1,3,0,3,3,0,no
5,1,0,0,0,0,1,1,5,0,5,5,0,no
10,1,1,1,0,0,1,1,10,0,10,10,0,no
10,1,1,1,0,0,1,1,10,0,10,10,0,no
5,1,1,1,1,0,1,1,5,0,5,5,0,no
8,1,1,1,0,0,1,1,8,0,8,8,0,no
5,1,0,0,0,0,1,1,5,0,5,5,0,no
4,1,0,0,0,0,1,1,4,0,4,4,0,no
10,1,1,1,0,0,1,1,10,0,10,10,0,no
4,1,0,0,0,0,1,1,4,0,4,4,0,no
10,1,1,1,0,0,1,1,10,0,10,10,0,no
8,2,2,1,2,0,1,1,8,0,8,8,0,no
12,2,3,1,2,0,1,1,12,0,12,12,0,no
8,2,2,1,2,0,1,1,8,0,8,8,0,no
8,2,2,1,2,0,1,1,8,0,8,8,0,no
22,0,0,0,0,1,1,1,22,0,22,22,0,no
9,1,3,1,3,0,1,1,9,0,9,9,0,no
9,1,3,1,3,0,1,1,9,0,9,9,0,no
5,1,1,1,1,0,1,1,5,0,5,5,0,no
7,1,2,1,2,0,1,1,7,0,7,7,0,no
11,1,4,1,4,0,1,1,11,0,11,11,0,no
17,1,7,1,7,0,1,1,17,0,17,17,0,no
9,1,3,1,3,0,1,1,9,0,9,9,0,no
13,1,5,1,5,0,1,1,13,0,13,13,0,no
17,1,7,1,7,0,1,1,17,0,17,17,0,no
15,1,6,1,6,0,1,1,15,0,15,15,0,no
11,1,4,1,4,0,1,1,11,0,11,11,0,no
7,1,2,1,2,0,1,1,7,0,7,7,0,no
13,1,2,2,1,1,1,1,13,0,13,13,0,no
5,4,0,0,0,1,1,1,5,0,5,5,0,no
21,2,6,1,0,0,1,1,21,0,21,21,0,no
18,2,5,1,0,0,1,1,18,0,18,18,0,no
22,1,3,3,1,4,1,1,22,0,22,22,0,no
44,1,7,3,4,11,1,1,44,0,44,44,0,no
3,1,0,0,0,0,1,1,3,0,3,3,0,no
14,1,1,2,1,2,1,1,14,0,14,14,0,no
23,5,8,1,1,3,1,1,23,0,23,23,0,no
3,1,0,0,1,0,1,1,3,0,3,3,0,no
3,0,0,0,0,0,1,1,3,0,3,3,0,no
8,2,1,1,0,0,1,1,8,0,8,8,0,no
5,4,0,0,0,0,1,1,5,0,5,5,0,no
11,6,2,1,1,1,1,1,11,0,11,11,0,no
5,2,0,0,0,0,1,1,5,0,5,5,0,no
5,0,0,0,0,0,1,1,5,0,5,5,0,no
21,1,2,1,3,5,1,1,21,0,21,21,0,no
3,3,0,0,0,0,1,1,3,0,3,3,0,no
13,0,2,2,2,2,1,1,13,0,13,13,0,no
3,0,0,0,0,0,1,1,3,0,3,3,0,no
3,0,0,0,0,0,1,1,3,0,3,3,0,no
3,0,0,0,0,0,1,1,3,0,3,3,0,no
5,0,1,1,1,0,1,1,5,0,5,5,0,no
5,1,1,1,1,0,1,1,5,0,5,5,0,no
4,1,0,0,0,0,1,1,4,0,4,4,0,no
13,6,1,1,1,2,1,1,13,0,13,13,0,no
17,4,2,2,1,1,1,1,17,0,17,17,0,no
25,2,4,3,2,4,1,1,25,0,25,25,0,no
6,0,0,0,0,0,1,1,6,0,6,6,0,no
3,3,0,0,0,0,1,1,3,0,3,3,0,no
13,0,1,1,1,3,1,1,13,0,13,13,0,no
3,0,0,0,0,0,1,1,3,0,3,3,0,no
8,0,1,1,1,2,1,1,8,0,8,8,0,no
3,0,0,0,0,0,1,1,3,0,3,3,0,no
11,0,2,1,2,1,1,1,11,0,11,11,0,no
11,0,2,1,2,1,1,1,11,0,11,11,0,no
3,1,0,0,0,0,1,1,3,0,3,3,0,no
11,0,2,1,2,1,1,1,11,0,11,11,0,no
11,0,2,1,2,1,1,1,11,0,11,11,0,no
11,0,2,1,2,1,1,1,11,0,11,11,0,no
11,0,2,1,2,1,1,1,11,0,11,11,0,no
11,0,2,1,2,1,1,1,11,0,11,11,0,no
11,0,2,1,2,1,1,1,11,0,11,11,0,no
11,0,2,1,2,1,1,1,11,0,11,11,0,no
11,0,2,1,2,1,1,1,11,0,11,11,0,no
14,0,2,1,2,2,1,1,14,0,14,14,0,no
11,1,2,1,2,1,1,1,11,0,11,11,0,no
11,1,2,1,2,1,1,1,11,0,11,11,0,no
11,1,2,1,2,1,1,1,11,0,11,11,0,no
11,3,2,1,2,1,1,1,11,0,11,11,0,no
11,1,2,1,2,1,1,1,11,0,11,11,0,no
11,1,2,1,2,1,1,1,11,0,11,11,0,no
11,1,2,1,2,1,1,1,11,0,11,11,0,no
11,1,2,1,2,1,1,1,11,0,11,11,0,no
11,1,2,1,2,1,1,1,11,0,11,11,0,no
11,1,2,1,2,1,1,1,11,0,11,11,0,no
11,1,2,1,2,1,1,1,11,0,11,11,0,no
11,1,2,1,2,1,1,1,11,0,11,11,0,no
4,1,0,0,0,0,1,1,4,0,4,4,0,no
3,0,0,0,0,0,1,1,3,0,3,3,0,no
12,0,1,2,1,3,1,1,12,0,12,12,0,no
12,0,1,2,1,3,1,1,12,0,12,12,0,no
12,0,1,2,1,3,1,1,12,0,12,12,0,no
12,0,1,2,1,3,1,1,12,0,12,12,0,no
12,0,1,2,1,3,1,1,12,0,12,12,0,no
12,0,1,2,1,3,1,1,12,0,12,12,0,no
12,0,1,2,1,3,1,1,12,0,12,12,0,no
13,0,3,2,5,1,1,1,13,0,13,13,0,no
3,0,0,0,0,0,1,1,3,0,3,3,0,no
12,0,1,2,1,3,1,1,12,0,12,12,0,no
12,0,1,2,1,3,1,1,12,0,12,12,0,no
3,1,0,0,0,0,1,1,3,0,3,3,0,no
10,0,1,1,1,1,1,1,10,0,10,10,0,no
18,1,3,2,3,1,1,1,18,0,18,18,0,no
10,1,1,1,1,0,1,1,10,0,10,10,0,no
3,1,0,0,0,0,1,1,3,0,3,3,0,no
3,1,0,0,0,0,1,1,3,0,3,3,0,no
3,1,0,0,0,0,1,1,3,0,3,3,0,no
5,3,0,0,0,1,1,1,5,0,5,5,0,no
3,1,0,0,0,0,1,1,3,0,3,3,0,no
3,1,0,0,0,0,1,1,3,0,3,3,0,no
3,1,0,0,0,0,1,1,3,0,3,3,0,no
3,1,0,0,0,0,1,1,3,0,3,3,0,no
3,1,0,0,0,0,1,1,3,0,3,3,0,no
25,1,10,10,0,0,1,1,25,0,25,25,0,no
3,1,0,0,0,0,1,1,3,0,3,3,0,no
3,1,0,0,0,0,1,1,3,0,3,3,0,no
4,0,1,1,1,0,1,1,4,0,4,4,0,no
4,1,0,0,0,0,1,1,4,0,4,4,0,no
5,6,1,0,0,0,1,1,5,0,5,5,0,no
5,2,0,0,0,0,1,1,5,0,5,5,0,no
5,4,0,0,0,0,1,1,5,0,5,5,0,no
8,2,1,1,0,0,1,1,8,0,8,8,0,no
5,0,0,0,0,0,1,1,5,0,5,5,0,no
3,3,0,0,0,0,1,1,3,0,3,3,0,no
7,0,1,1,1,1,1,1,7,0,7,7,0,no
3,0,0,0,0,0,1,1,3,0,3,3,0,no
3,0,0,0,0,0,1,1,3,0,3,3,0,no
3,0,0,0,0,0,1,1,3,0,3,3,0,no
5,0,1,1,1,0,1,1,5,0,5,5,0,no
5,1,1,1,1,0,1,1,5,0,5,5,0,no
9,0,0,0,0,1,1,1,9,0,9,9,0,no
2,0,0,0,0,0,1,1,2,0,2,2,0,no
3,0,0,0,0,0,1,1,3,0,3,3,0,no
2,1,0,0,1,0,1,1,2,0,2,2,0,no
6,1,0,0,3,0,1,1,6,0,6,6,0,no
3,1,0,0,0,0,1,1,3,0,3,3,0,no
2,1,0,0,1,0,1,1,2,0,2,2,0,no
3,0,0,0,0,0,1,1,3,0,3,3,0,no
3,0,0,0,0,0,1,1,3,0,3,3,0,no
3,0,0,0,0,0,1,1,3,0,3,3,0,no
3,0,0,0,0,0,1,1,3,0,3,3,0,no
3,0,0,0,0,0,1,1,3,0,3,3,0,no
3,0,0,0,2,0,1,1,3,0,3,3,0,no
3,0,0,0,0,0,1,1,3,0,3,3,0,no
3,0,0,0,0,0,1,1,3,0,3,3,0,no
3,0,0,0,0,0,1,1,3,0,3,3,0,no
3,0,0,0,0,0,1,1,3,0,3,3,0,no
39,0,11,1,11,1,1,1,39,0,39,39,0,no
3,0,0,0,0,0,1,1,3,0,3,3,0,no
13,0,2,2,1,3,1,1,13,0,13,13,0,no
10,0,1,1,1,2,1,1,10,0,10,10,0,no
3,0,0,0,1,0,1,1,3,0,3,3,0,no
3,0,0,0,1,0,1,1,3,0,3,3,0,no
3,0,0,0,1,0,1,1,3,0,3,3,0,no
3,0,0,0,1,0,1,1,3,0,3,3,0,no
3,0,0,0,1,0,1,1,3,0,3,3,0,no
3,0,0,0,1,0,1,1,3,0,3,3,0,no
3,0,0,0,1,0,1,1,3,0,3,3,0,no
3,0,0,0,1,0,1,1,3,0,3,3,0,no
3,0,0,0,1,0,1,1,3,0,3,3,0,no
3,0,0,0,1,0,1,1,3,0,3,3,0,no
3,0,0,0,1,0,1,1,3,0,3,3,0,no
12,0,0,0,1,0,1,1,12,0,12,12,0,no
3,0,0,0,1,0,1,1,3,0,3,3,0,no
11,0,2,1,2,1,1,1,11,0,11,11,0,no
3,0,0,0,0,0,1,1,3,0,3,3,0,no
3,1,0,0,1,0,1,1,3,0,3,3,0,no
3,0,0,0,0,0,1,1,3,0,3,3,0,no
4,1,0,0,2,1,1,1,4,0,4,4,0,no
8,1,1,1,1,1,1,1,8,0,8,8,0,no
8,2,1,1,1,1,1,1,8,0,8,8,0,no
3,1,0,0,1,0,1,1,3,0,3,3,0,no
3,2,0,0,1,0,1,1,3,0,3,3,0,no
3,1,0,0,1,0,1,1,3,0,3,3,0,no
3,2,0,0,1,0,1,1,3,0,3,3,0,no
3,1,0,0,1,0,1,1,3,0,3,3,0,no
3,2,0,0,1,0,1,1,3,0,3,3,0,no
3,1,0,0,1,0,1,1,3,0,3,3,0,no
3,2,0,0,1,0,1,1,3,0,3,3,0,no
3,0,0,0,0,0,1,1,3,0,3,3,0,no
3,0,0,0,2,0,1,1,3,0,3,3,0,no
34,1,10,1,10,0,1,1,34,0,34,34,0,no
3,0,0,0,0,0,1,1,3,0,3,3,0,no
4,1,0,0,0,0,1,1,4,0,4,4,0,no
7,0,1,1,2,1,1,1,7,0,7,7,0,no
7,0,1,1,2,1,1,1,7,0,7,7,0,no
48,0,10,1,15,3,1,1,48,0,48,48,0,no
24,0,0,0,11,0,1,1,24,0,24,24,0,no
6,0,0,0,1,0,1,1,6,0,6,6,0,no
6,0,0,0,1,0,1,1,6,0,6,6,0,no
6,0,0,0,1,0,1,1,6,0,6,6,0,no
6,0,0,0,1,0,1,1,6,0,6,6,0,no
6,0,0,0,1,0,1,1,6,0,6,6,0,no
6,0,0,0,1,0,1,1,6,0,6,6,0,no
6,0,0,0,1,0,1,1,6,0,6,6,0,no
6,0,0,0,1,0,1,1,6,0,6,6,0,no
6,0,0,0,1,0,1,1,6,0,6,6,0,no
6,0,0,0,2,0,1,1,6,0,6,6,0,no
3,0,0,0,1,0,1,1,3,0,3,3,0,no
3,0,0,0,0,0,1,1,3,0,3,3,0,no
3,0,0,0,0,0,1,1,3,0,3,3,0,no
3,0,0,0,0,0,1,1,3,0,3,3,0,no
3,0,0,0,0,0,1,1,3,0,3,3,0,no
3,0,0,0,2,0,1,1,3,0,3,3,0,no
3,0,0,0,2,0,1,1,3,0,3,3,0,no
3,0,0,0,1,0,1,1,3,0,3,3,0,no
3,0,0,0,0,0,1,1,3,0,3,3,0,no
3,0,0,0,0,0,1,1,3,0,3,3,0,no
3,0,0,0,0,0,1,1,3,0,3,3,0,no
3,0,0,0,0,0,1,1,3,0,3,3,0,no
3,0,0,0,0,0,1,1,3,0,3,3,0,no
10,0,1,1,1,2,1,1,10,0,10,10,0,no
3,0,0,0,1,0,1,1,3,0,3,3,0,no
3,0,0,0,1,0,1,1,3,0,3,3,0,no
3,0,0,0,1,0,1,1,3,0,3,3,0,no
3,0,0,0,1,0,1,1,3,0,3,3,0,no
3,0,0,0,1,0,1,1,3,0,3,3,0,no
3,0,0,0,1,0,1,1,3,0,3,3,0,no
3,0,0,0,1,0,1,1,3,0,3,3,0,no
3,0,0,0,1,0,1,1,3,0,3,3,0,no
3,0,0,0,1,0,1,1,3,0,3,3,0,no
3,0,0,0,1,0,1,1,3,0,3,3,0,no
3,0,0,0,1,0,1,1,3,0,3,3,0,no
3,0,0,0,1,0,1,1,3,0,3,3,0,no
6,0,1,1,2,0,1,1,6,0,6,6,0,no
4,0,1,1,1,0,1,1,4,0,4,4,0,no
87,2,15,3,3,4,1,1,87,0,87,87,0,no
8,1,1,1,2,0,1,1,8,0,8,8,0,no
36,1,11,1,3,0,1,1,36,0,36,36,0,no
6,1,0,0,0,0,1,1,6,0,6,6,0,no
6,1,0,0,0,0,1,1,6,0,6,6,0,no
9,1,1,1,0,0,1,1,9,0,9,9,0,no
6,1,0,0,0,0,1,1,6,0,6,6,0,no
6,1,0,0,0,0,1,1,6,0,6,6,0,no
6,1,0,0,0,0,1,1,6,0,6,6,0,no
6,1,0,0,0,0,1,1,6,0,6,6,0,no
6,1,0,0,0,0,1,1,6,0,6,6,0,no
9,1,1,1,0,0,1,1,9,0,9,9,0,no
5,1,0,0,0,0,1,1,5,0,5,5,0,no
9,1,1,1,1,0,1,1,9,0,9,9,0,no
4,2,0,0,1,0,1,1,4,0,4,4,0,no
3,0,0,0,1,0,1,1,3,0,3,3,0,no
3,0,0,0,0,0,1,1,3,0,3,3,0,no
3,0,0,0,0,0,1,1,3,0,3,3,0,no
3,0,0,0,0,0,1,1,3,0,3,3,0,no
3,0,0,0,0,0,1,1,3,0,3,3,0,no
6,1,1,1,1,0,1,1,6,0,6,6,0,no
24,1,10,1,0,0,1,1,24,0,24,24,0,no
3,1,0,0,0,0,1,1,3,0,3,3,0,no
0,0,0,0,0,0,1,1,0,0,0,0,0,no
0,0,0,0,0,0,1,1,0,0,0,0,0,no
0,0,0,0,0,0,1,1,0,0,0,0,0,no
0,0,0,0,0,0,1,1,0,0,0,0,0,no
0,0,0,0,0,0,1,1,0,0,0,0,0,no
0,0,0,0,0,0,1,1,0,0,0,0,0,no
0,0,0,0,0,0,1,1,0,0,0,0,0,no
0,0,0,0,0,0,1,1,0,0,0,0,0,no
0,0,0,0,0,0,1,1,0,0,0,0,0,no
0,0,0,0,1,0,1,1,0,0,0,0,0,no
0,0,0,0,0,0,1,1,0,0,0,0,0,no
0,0,0,0,0,0,1,1,0,0,0,0,0,no
0,0,0,0,0,0,1,1,0,0,0,0,0,no
0,0,0,0,0,0,1,1,0,0,0,0,0,no
0,0,0,0,0,0,1,1,0,0,0,0,0,no
0,0,0,0,0,0,1,1,0,0,0,0,0,no
0,0,0,0,0,0,1,1,0,0,0,0,0,no
0,0,0,0,0,0,1,1,0,0,0,0,0,no
0,0,0,0,0,0,1,1,0,0,0,0,0,no
0,0,0,0,0,0,1,1,0,0,0,0,0,no
4,2,0,0,1,0,1,1,4,0,4,4,0,no
3,0,0,0,1,0,1,1,3,0,3,3,0,no
3,0,0,0,0,0,1,1,3,0,3,3,0,no
3,0,0,0,0,0,1,1,3,0,3,3,0,no
3,0,0,0,0,0,1,1,3,0,3,3,0,no
3,0,0,0,0,0,1,1,3,0,3,3,0,no
6,1,1,1,1,0,1,1,6,0,6,6,0,no
8,1,2,1,0,0,1,1,8,0,8,8,0,no
3,1,0,0,0,0,1,1,3,0,3,3,0,no
47,2,11,10,1,7,1,1,47,0,47,47,0,no
49,1,14,3,3,4,1,1,49,0,49,49,0,no
0,2,0,0,0,0,1,1,0,0,0,0,0,no
0,2,0,0,0,0,1,1,0,0,0,0,0,no
0,2,0,0,0,0,1,1,0,0,0,0,0,no
0,2,0,0,0,0,1,1,0,0,0,0,0,no
30,3,11,2,0,0,1,1,30,0,30,30,0,no
3,0,0,0,0,0,1,1,3,0,3,3,0,no
5,2,1,1,1,0,1,1,5,0,5,5,0,no
5,2,1,1,1,0,1,1,5,0,5,5,0,no
5,2,1,1,1,0,1,1,5,0,5,5,0,no
5,2,1,1,1,0,1,1,5,0,5,5,0,no
7,2,2,1,2,0,1,1,7,0,7,7,0,no
7,2,2,1,2,0,1,1,7,0,7,7,0,no
7,2,2,1,2,0,1,1,7,0,7,7,0,no
7,2,2,1,2,0,1,1,7,0,7,7,0,no
5,2,1,1,1,0,1,1,5,0,5,5,0,no
5,2,1,1,1,0,1,1,5,0,5,5,0,no
5,2,1,1,1,0,1,1,5,0,5,5,0,no
5,2,1,1,1,0,1,1,5,0,5,5,0,no
5,2,1,1,1,0,1,1,5,0,5,5,0,no
5,2,1,1,1,0,1,1,5,0,5,5,0,no
5,2,1,1,1,0,1,1,5,0,5,5,0,no
5,2,1,1,1,0,1,1,5,0,5,5,0,no
13,1,3,1,4,3,1,1,13,0,13,13,0,no
0,3,0,0,0,0,1,1,0,0,0,0,0,no
3,0,0,0,0,0,1,1,3,0,3,3,0,no
0,1,0,0,1,0,1,1,0,0,0,0,0,no
5,2,0,0,0,0,1,1,5,0,5,5,0,no
5,2,0,0,0,0,1,1,5,0,5,5,0,no
5,2,0,0,0,0,1,1,5,0,5,5,0,no
6,2,1,1,1,0,1,1,6,0,6,6,0,no
5,2,0,0,0,0,1,1,5,0,5,5,0,no
5,2,0,0,0,0,1,1,5,0,5,5,0,no
5,2,0,0,0,0,1,1,5,0,5,5,0,no
5,2,0,0,0,0,1,1,5,0,5,5,0,no
5,2,0,0,0,0,1,1,5,0,5,5,0,no
5,2,0,0,0,0,1,1,5,0,5,5,0,no
5,2,0,0,0,0,1,1,5,0,5,5,0,no
5,2,0,0,0,0,1,1,5,0,5,5,0,no
5,2,0,0,0,0,1,1,5,0,5,5,0,no
5,2,0,0,0,0,1,1,5,0,5,5,0,no
5,2,0,0,0,0,1,1,5,0,5,5,0,no
5,2,0,0,0,0,1,1,5,0,5,5,0,no
5,2,0,0,0,0,1,1,5,0,5,5,0,no
5,2,0,0,0,0,1,1,5,0,5,5,0,no
5,2,0,0,0,0,1,1,5,0,5,5,0,no
6,2,1,1,1,0,1,1,6,0,6,6,0,no
5,2,0,0,0,0,1,1,5,0,5,5,0,no
3,2,0,0,0,0,1,1,3,0,3,3,0,no
0,2,0,0,0,0,1,1,0,0,0,0,0,no
6,3,1,1,0,0,1,1,6,0,6,6,0,no
3,0,0,0,0,0,1,1,3,0,3,3,0,no
6,2,2,1,1,0,1,1,6,0,6,6,0,no
6,2,2,1,1,0,1,1,6,0,6,6,0,no
5,1,1,1,1,0,1,1,5,0,5,5,0,no
5,0,1,1,1,0,1,1,5,0,5,5,0,no
3,0,0,0,0,0,1,1,3,0,3,3,0,no
5,0,1,1,1,0,1,1,5,0,5,5,0,no
3,0,0,0,0,0,1,1,3,0,3,3,0,no
7,1,2,1,2,0,1,1,7,0,7,7,0,no
7,1,2,1,2,0,1,1,7,0,7,7,0,no
8,0,0,0,0,1,1,1,8,0,8,8,0,no
3,1,0,0,0,0,1,1,3,0,3,3,0,no
53,3,13,2,0,1,1,1,53,0,53,53,0,no
12,1,2,1,1,4,1,1,12,0,12,12,0,no
13,3,3,1,0,2,1,1,13,0,13,13,0,no
13,3,3,1,0,2,1,1,13,0,13,13,0,no
13,3,3,1,0,2,1,1,13,0,13,13,0,no
7,0,0,0,0,1,1,1,7,0,7,7,0,no
3,1,0,0,0,0,1,1,3,0,3,3,0,no
15,2,4,1,1,1,1,1,15,0,15,15,0,no
11,1,2,1,3,3,1,1,11,0,11,11,0,no
7,0,0,0,0,1,1,1,7,0,7,7,0,no
3,1,0,0,0,0,1,1,3,0,3,3,0,no
9,1,2,1,2,2,1,1,9,0,9,9,0,no
6,1,1,1,1,1,1,1,6,0,6,6,0,no
7,0,0,0,0,1,1,1,7,0,7,7,0,no
12,3,2,1,1,0,1,1,12,0,12,12,0,no
16,1,4,1,1,2,1,1,16,0,16,16,0,no
10,1,2,1,3,2,1,1,10,0,10,10,0,no
11,2,1,1,1,3,1,1,11,0,11,11,0,no
32,2,8,3,4,6,1,1,32,0,32,32,0,no
28,1,7,3,4,6,1,1,28,0,28,28,0,no
8,0,0,0,0,1,1,1,8,0,8,8,0,no
3,1,0,0,0,0,1,1,3,0,3,3,0,no
34,1,10,2,1,2,1,1,34,0,34,34,0,no
7,1,1,1,2,1,1,1,7,0,7,7,0,no
7,0,0,0,0,1,1,1,7,0,7,7,0,no
8,1,0,0,0,0,1,1,8,0,8,8,0,no
8,1,0,0,0,0,1,1,8,0,8,8,0,no
8,1,0,0,0,0,1,1,8,0,8,8,0,no
8,1,0,0,0,0,1,1,8,0,8,8,0,no
8,1,0,0,0,0,1,1,8,0,8,8,0,no
7,1,2,1,2,0,1,1,7,0,7,7,0,no
5,0,1,1,1,0,1,1,5,0,5,5,0,no
5,0,1,1,1,0,1,1,5,0,5,5,0,no
5,0,1,1,1,0,1,1,5,0,5,5,0,no
5,0,1,1,1,0,1,1,5,0,5,5,0,no
5,0,1,1,1,0,1,1,5,0,5,5,0,no
16,0,7,1,0,0,1,1,16,0,16,16,0,no
16,0,6,1,0,0,1,1,16,0,16,16,0,no
8,0,2,1,1,0,1,1,8,0,8,8,0,no
20,0,7,2,0,0,1,1,20,0,20,20,0,no
4,1,0,0,0,0,1,1,4,0,4,4,0,no
3,0,0,0,0,0,1,1,3,0,3,3,0,no
3,0,0,0,0,0,1,1,3,0,3,3,0,no
3,0,0,0,0,0,1,1,3,0,3,3,0,no
3,1,0,0,0,0,1,1,3,0,3,3,0,no
2,0,0,0,1,0,1,1,2,0,2,2,0,no
3,1,0,0,0,0,1,1,3,0,3,3,0,no
3,2,0,0,0,0,1,1,3,0,3,3,0,no
3,1,0,0,0,0,1,1,3,0,3,3,0,no
15,3,4,1,3,3,1,1,15,0,15,15,0,no
8,2,0,0,0,0,1,1,8,0,8,8,0,no
8,2,0,0,0,0,1,1,8,0,8,8,0,no
8,2,0,0,0,0,1,1,8,0,8,8,0,no
6,2,1,1,1,0,1,1,6,0,6,6,0,no
8,2,0,0,0,0,1,1,8,0,8,8,0,no
8,2,0,0,0,0,1,1,8,0,8,8,0,no
8,2,0,0,0,0,1,1,8,0,8,8,0,no
8,2,0,0,0,0,1,1,8,0,8,8,0,no
8,2,0,0,0,0,1,1,8,0,8,8,0,no
8,2,0,0,0,0,1,1,8,0,8,8,0,no
8,2,0,0,0,0,1,1,8,0,8,8,0,no
8,2,0,0,0,0,1,1,8,0,8,8,0,no
8,2,0,0,0,0,1,1,8,0,8,8,0,no
8,2,0,0,0,0,1,1,8,0,8,8,0,no
8,2,0,0,0,0,1,1,8,0,8,8,0,no
8,2,0,0,0,0,1,1,8,0,8,8,0,no
8,2,0,0,0,0,1,1,8,0,8,8,0,no
8,2,0,0,0,0,1,1,8,0,8,8,0,no
8,2,0,0,0,0,1,1,8,0,8,8,0,no
6,2,1,1,1,0,1,1,6,0,6,6,0,no
8,2,0,0,0,0,1,1,8,0,8,8,0,no
8,2,0,0,0,0,1,1,8,0,8,8,0,no
10,1,2,1,3,2,1,1,10,0,10,10,0,no
0,2,0,0,0,0,1,1,0,0,0,0,0,no
3,0,0,0,0,0,1,1,3,0,3,3,0,no
20,2,5,2,2,2,1,1,20,0,20,20,0,no
10,1,2,1,3,2,1,1,10,0,10,10,0,no
0,2,0,0,0,0,1,1,0,0,0,0,0,no
3,0,0,0,0,0,1,1,3,0,3,3,0,no
8,2,2,1,0,2,1,1,8,0,8,8,0,no
0,2,0,0,0,0,1,1,0,0,0,0,0,no
0,2,0,0,0,0,1,1,0,0,0,0,0,no
0,2,0,0,0,0,1,1,0,0,0,0,0,no
0,2,0,0,0,0,1,1,0,0,0,0,0,no
0,2,0,0,0,0,1,1,0,0,0,0,0,no
0,2,0,0,0,0,1,1,0,0,0,0,0,no
46,3,15,2,0,0,1,1,46,0,46,46,0,no
3,0,0,0,0,0,1,1,3,0,3,3,0,no
5,2,1,1,1,0,1,1,5,0,5,5,0,no
5,2,1,1,1,0,1,1,5,0,5,5,0,no
5,2,1,1,1,0,1,1,5,0,5,5,0,no
5,2,1,1,1,0,1,1,5,0,5,5,0,no
5,2,1,1,1,0,1,1,5,0,5,5,0,no
5,2,1,1,1,0,1,1,5,0,5,5,0,no
3,2,0,0,0,0,1,1,3,0,3,3,0,no
5,2,1,1,1,0,1,1,5,0,5,5,0,no
5,2,1,1,1,0,1,1,5,0,5,5,0,no
5,2,1,1,1,0,1,1,5,0,5,5,0,no
5,2,1,1,1,0,1,1,5,0,5,5,0,no
3,2,0,0,0,0,1,1,3,0,3,3,0,no
3,2,0,0,0,0,1,1,3,0,3,3,0,no
5,2,1,1,1,0,1,1,5,0,5,5,0,no
5,2,1,1,1,0,1,1,5,0,5,5,0,no
5,2,1,1,1,0,1,1,5,0,5,5,0,no
5,2,1,1,1,0,1,1,5,0,5,5,0,no
3,2,0,0,0,0,1,1,3,0,3,3,0,no
3,2,0,0,0,0,1,1,3,0,3,3,0,no
5,2,1,1,1,0,1,1,5,0,5,5,0,no
5,2,1,1,1,0,1,1,5,0,5,5,0,no
5,2,1,1,1,0,1,1,5,0,5,5,0,no
5,2,1,1,1,0,1,1,5,0,5,5,0,no
3,2,0,0,0,0,1,1,3,0,3,3,0,no
3,2,0,0,0,0,1,1,3,0,3,3,0,no
5,2,1,1,1,0,1,1,5,0,5,5,0,no
5,2,1,1,1,0,1,1,5,0,5,5,0,no
5,2,1,1,1,0,1,1,5,0,5,5,0,no
5,2,1,1,1,0,1,1,5,0,5,5,0,no
3,2,0,0,0,0,1,1,3,0,3,3,0,no
5,2,1,1,1,0,1,1,5,0,5,5,0,no
5,2,1,1,1,0,1,1,5,0,5,5,0,no
5,2,1,1,1,0,1,1,5,0,5,5,0,no
5,2,1,1,1,0,1,1,5,0,5,5,0,no
5,2,1,1,1,0,1,1,5,0,5,5,0,no
5,2,1,1,1,0,1,1,5,0,5,5,0,no
4,0,0,0,1,1,1,1,4,0,4,4,0,no
4,2,0,0,1,1,1,1,4,0,4,4,0,no
3,0,0,0,0,0,1,1,3,0,3,3,0,no
3,2,0,0,0,0,1,1,3,0,3,3,0,no
3,0,0,0,0,0,1,1,3,0,3,3,0,no
4,0,0,0,0,0,1,1,4,0,4,4,0,no
4,2,0,0,0,0,1,1,4,0,4,4,0,no
3,1,0,0,0,0,1,1,3,0,3,3,0,no
3,2,0,0,0,0,1,1,3,0,3,3,0,no
12,3,4,1,1,0,1,1,12,0,12,12,0,no
3,2,0,0,0,0,1,1,3,0,3,3,0,no
2,0,0,0,0,0,1,1,2,0,2,2,0,no
2,2,0,0,0,0,1,1,2,0,2,2,0,no
2,0,0,0,0,0,1,1,2,0,2,2,0,no
3,0,0,0,0,0,1,1,3,0,3,3,0,no
3,2,0,0,0,0,1,1,3,0,3,3,0,no
28,0,4,3,2,5,1,1,28,0,28,28,0,no
4,1,0,0,0,1,1,1,4,0,4,4,0,no
9,2,1,1,1,1,1,1,9,0,9,9,0,no
33,1,9,3,2,4,1,1,33,0,33,33,0,no
9,0,1,1,1,1,1,1,9,0,9,9,0,no
3,1,0,0,0,0,1,1,3,0,3,3,0,no
3,2,0,0,0,0,1,1,3,0,3,3,0,no
9,2,1,1,0,1,1,1,9,0,9,9,0,no
8,4,1,1,0,0,1,1,8,0,8,8,0,no
3,1,0,0,0,0,1,1,3,0,3,3,0,no
3,2,0,0,0,0,1,1,3,0,3,3,0,no
3,3,0,0,0,0,1,1,3,0,3,3,0,no
3,1,0,0,0,0,1,1,3,0,3,3,0,no
3,0,0,0,0,0,1,1,3,0,3,3,0,no
3,0,0,0,0,0,1,1,3,0,3,3,0,no
3,1,1,0,0,0,1,1,3,0,3,3,0,no
5,1,0,0,0,0,1,1,5,0,5,5,0,no
5,3,0,0,0,0,1,1,5,0,5,5,0,no
38,5,9,3,3,5,1,1,38,0,38,38,0,no
5,3,1,1,1,0,1,1,5,0,5,5,0,no
7,1,2,1,2,0,1,1,7,0,7,7,0,no
3,1,0,0,0,0,1,1,3,0,3,3,0,no
5,0,1,1,1,0,1,1,5,0,5,5,0,no
3,1,0,0,0,0,1,1,3,0,3,3,0,no
5,1,1,1,1,0,1,1,5,0,5,5,0,no
19,2,4,2,5,4,1,1,19,0,19,19,0,no
5,1,0,0,0,0,1,1,5,0,5,5,0,no
6,0,0,0,0,0,1,1,6,0,6,6,0,no
11,3,2,1,2,1,1,1,11,0,11,11,0,no
11,0,3,1,2,0,1,1,11,0,11,11,0,no
3,2,0,0,0,0,1,1,3,0,3,3,0,no
30,2,10,2,6,2,1,1,30,0,30,30,0,no
5,0,1,1,1,0,1,1,5,0,5,5,0,no
3,2,0,0,0,0,1,1,3,0,3,3,0,no
14,2,3,2,2,1,1,1,14,0,14,14,0,no
37,2,8,2,6,7,2,2,37,0,36,18.5,1,no
28,2,5,1,5,5,1,1,28,0,28,28,0,no
13,0,3,3,0,0,1,1,13,0,13,13,0,no
4,2,0,0,0,0,1,1,4,0,4,4,0,no
12,1,6,1,5,1,1,1,12,0,12,12,0,no
5,0,2,0,0,1,1,1,5,0,5,5,0,no
13,1,4,1,2,1,1,1,13,0,13,13,0,no
3,0,0,0,0,0,1,1,3,0,3,3,0,no
3,0,0,0,0,0,1,1,3,0,3,3,0,no
3,0,0,0,0,0,1,1,3,0,3,3,0,no
3,1,0,0,0,0,1,1,3,0,3,3,0,no
3,1,0,0,0,0,1,1,3,0,3,3,0,no
3,0,0,0,0,0,1,1,3,0,3,3,0,no
3,0,0,0,0,0,1,1,3,0,3,3,0,no
3,0,0,0,0,0,1,1,3,0,3,3,0,no
3,0,0,0,0,0,1,1,3,0,3,3,0,no
3,0,0,0,0,0,1,1,3,0,3,3,0,no
3,0,0,0,0,0,1,1,3,0,3,3,0,no
6,1,1,1,0,0,1,1,6,0,6,6,0,no
3,1,0,0,0,0,1,1,3,0,3,3,0,no
3,1,0,0,0,0,1,1,3,0,3,3,0,no
3,1,0,0,0,0,1,1,3,0,3,3,0,no
3,1,0,0,0,0,1,1,3,0,3,3,0,no
3,3,0,0,0,0,1,1,3,0,3,3,0,no
3,2,0,0,0,0,1,1,3,0,3,3,0,no
3,4,0,0,0,0,1,1,3,0,3,3,0,no
3,1,0,0,0,0,1,1,3,0,3,3,0,no
3,2,0,0,0,0,1,1,3,0,3,3,0,no
3,1,0,0,0,0,1,1,3,0,3,3,0,no
3,0,0,0,0,0,1,1,3,0,3,3,0,no
3,1,0,0,0,0,1,1,3,0,3,3,0,no
3,1,0,0,0,0,1,1,3,0,3,3,0,no
5,3,0,0,0,0,1,1,5,0,5,5,0,no
2,0,0,0,0,0,1,1,2,0,2,2,0,no
3,0,0,0,0,0,1,1,3,0,3,3,0,no
3,0,0,0,0,0,1,1,3,0,3,3,0,no
5,1,1,1,1,0,1,1,5,0,5,5,0,no
5,4,1,1,1,0,1,1,5,0,5,5,0,no
3,2,0,0,0,0,1,1,3,0,3,3,0,no
56,5,11,2,8,4,2,2,57,1,56,29,1,no
5,2,1,1,1,0,1,1,5,0,5,5,0,no
5,5,1,1,1,0,1,1,5,0,5,5,0,no
3,1,0,0,0,0,1,1,3,0,3,3,0,no
3,4,0,0,0,0,1,1,3,0,3,3,0,no
3,3,0,0,0,0,1,1,3,0,3,3,0,no
3,1,0,0,0,0,1,1,3,0,3,3,0,no
3,2,0,0,0,0,1,1,3,0,3,3,0,no
3,1,0,0,0,0,1,1,3,0,3,3,0,no
3,1,0,0,0,0,1,1,3,0,3,3,0,no
3,1,0,0,0,0,1,1,3,0,3,3,0,no
3,3,0,0,0,0,1,1,3,0,3,3,0,no
3,0,0,0,0,0,1,1,3,0,3,3,0,no
16,6,2,2,0,0,1,1,16,0,16,16,0,no
9,4,0,0,0,0,1,1,9,0,9,9,0,no
17,0,3,1,3,2,1,1,17,0,17,17,0,no
26,2,7,1,7,2,1,1,26,0,26,26,0,no
3,0,0,0,0,0,1,1,3,0,3,3,0,no
3,0,0,0,0,0,1,1,3,0,3,3,0,no
3,0,0,0,0,0,1,1,3,0,3,3,0,no
3,0,0,0,0,0,1,1,3,0,3,3,0,no
3,1,0,0,0,0,1,1,3,0,3,3,0,no
75,2,20,3,7,8,1,1,75,0,75,75,0,no
3,0,0,0,0,0,1,1,3,0,3,3,0,no
16,0,4,1,4,1,1,1,16,0,16,16,0,no
4,1,0,0,0,0,1,1,4,0,4,4,0,no
7,0,1,1,0,0,1,1,7,0,7,7,0,no
3,1,0,0,0,0,1,1,3,0,3,3,0,no
3,2,0,0,0,0,1,1,3,0,3,3,0,no
3,0,0,0,0,0,1,1,3,0,3,3,0,no
3,0,0,0,0,0,1,1,3,0,3,3,0,no
3,0,0,0,0,0,1,1,3,0,3,3,0,no
0,0,0,0,1,0,1,1,0,0,0,0,0,no
0,0,0,0,1,0,1,1,0,0,0,0,0,no
0,0,0,0,1,0,1,1,0,0,0,0,0,no
0,5,0,0,1,0,1,1,0,0,0,0,0,no
0,4,0,0,1,0,1,1,0,0,0,0,0,no
0,4,0,0,1,0,1,1,0,0,0,0,0,no
0,2,0,0,1,0,1,1,0,0,0,0,0,no
0,1,0,0,1,0,1,1,0,0,0,0,0,no
0,4,0,0,1,0,1,1,0,0,0,0,0,no
0,5,0,0,1,0,1,1,0,0,0,0,0,no
0,5,0,0,1,0,1,1,0,0,0,0,0,no
0,4,0,0,1,0,1,1,0,0,0,0,0,no
0,2,0,0,1,0,1,1,0,0,0,0,0,no
0,3,0,0,1,0,1,1,0,0,0,0,0,no
0,1,0,0,1,0,1,1,0,0,0,0,0,no
0,2,0,0,1,0,1,1,0,0,0,0,0,no
0,1,0,0,1,0,1,1,0,0,0,0,0,no
0,3,0,0,1,0,1,1,0,0,0,0,0,no
0,4,0,0,1,0,1,1,0,0,0,0,0,no
0,2,0,0,1,0,1,1,0,0,0,0,0,no
0,3,0,0,1,0,1,1,0,0,0,0,0,no
0,3,0,0,1,0,1,1,0,0,0,0,0,no
0,2,0,0,1,0,1,1,0,0,0,0,0,no
8,11,0,0,0,0,1,1,8,0,8,8,0,no
37,0,6,3,1,11,3,3,38,1,36,13,1,no
9,1,1,1,1,4,1,1,9,0,9,9,0,no
21,1,2,1,0,6,4,4,22,1,19,5.75,1,no
3,5,0,0,0,0,1,1,3,0,3,3,0,no
5,8,0,0,0,0,1,1,5,0,5,5,0,no
34,0,4,2,2,7,5,4,36,2,33,7.6,1,no
10,1,3,2,1,1,1,1,10,0,10,10,0,no
16,5,3,2,1,5,4,3,17,1,14,4.5,1,no
3,1,0,0,0,0,1,1,3,0,3,3,0,no
14,5,2,1,2,2,2,2,15,1,15,8,0,no
3,2,0,0,0,0,2,2,4,1,3,2.5,1,no
5,1,0,0,0,0,2,2,6,1,5,3.5,1,no
5,1,0,0,0,0,2,2,6,1,5,3.5,1,no
3,2,0,0,0,0,1,1,3,0,3,3,0,no
3,2,0,0,0,0,1,1,3,0,3,3,0,no
25,2,5,4,1,2,2,2,25,0,23,12.5,1,no
11,1,4,1,2,1,2,2,12,1,11,6.5,1,no
5,0,1,1,0,0,1,1,5,0,5,5,1,no
3,1,0,0,0,0,1,1,3,0,3,3,0,no
12,0,3,3,0,2,1,1,12,0,12,12,0,no
9,3,1,1,0,1,1,1,9,0,9,9,0,no
11,1,2,2,0,3,1,1,11,0,11,11,0,no
10,1,1,1,0,1,1,1,10,0,10,10,0,no
3,0,0,0,0,0,1,1,3,0,3,3,1,no
4,1,0,0,0,1,1,1,4,0,4,4,0,no
14,6,2,1,0,0,1,1,14,0,14,14,0,no
6,2,0,0,0,0,1,1,6,0,6,6,0,no
3,3,0,0,0,0,1,1,3,0,3,3,0,no
29,0,3,3,3,15,2,2,30,1,29,15.5,0,no
35,1,1,1,0,6,2,2,35,0,20,17.5,0,no
3,0,0,0,0,0,1,1,3,0,3,3,0,no
3,0,0,0,0,0,1,1,3,0,3,3,0,no
3,0,0,0,0,0,1,1,3,0,3,3,0,no
5,0,1,1,1,0,1,1,5,0,5,5,0,no
6,0,1,1,2,0,1,1,6,0,6,6,0,no
3,0,0,0,0,0,1,1,3,0,3,3,0,no
3,0,0,0,0,0,1,1,3,0,3,3,0,no
3,0,0,0,0,0,1,1,3,0,3,3,0,no
3,0,0,0,0,0,1,1,3,0,3,3,0,no
3,0,0,0,0,0,1,1,3,0,3,3,0,no
3,0,0,0,0,0,1,1,3,0,3,3,0,no
3,0,0,0,0,0,1,1,3,0,3,3,0,no
3,0,0,0,0,0,1,1,3,0,3,3,0,no
3,0,0,0,0,0,1,1,3,0,3,3,0,no
3,0,0,0,0,0,1,1,3,0,3,3,0,no
3,0,0,0,0,0,1,1,3,0,3,3,0,no
5,0,1,1,0,0,1,1,5,0,5,5,0,no
4,2,0,0,0,0,1,1,4,0,4,4,0,no
10,0,2,1,0,1,2,2,11,1,10,6,0,no
9,7,0,0,0,0,1,1,9,0,9,9,0,no
8,0,3,1,3,0,1,1,8,0,8,8,0,no
3,0,0,0,0,0,1,1,3,0,3,3,0,no
3,0,0,0,0,0,1,1,3,0,3,3,1,no
3,0,0,0,0,0,1,1,3,0,3,3,1,no
3,2,0,0,0,0,1,1,3,0,3,3,0,no
3,1,0,0,0,0,1,1,3,0,3,3,0,no
3,1,0,0,0,0,1,1,3,0,3,3,1,no
38,0,13,2,10,4,2,2,39,1,38,20,0,no
5,2,0,0,0,0,1,1,5,0,5,5,0,no
8,1,2,1,2,1,1,1,8,0,8,8,0,no
3,0,0,0,0,0,1,1,3,0,3,3,0,no
3,0,0,0,0,0,1,1,3,0,3,3,0,no
3,0,0,0,0,0,1,1,3,0,3,3,0,no
8,0,2,1,2,1,1,1,8,0,8,8,0,no
3,1,0,0,0,0,1,1,3,0,3,3,1,no
3,2,0,0,0,0,1,1,3,0,3,3,1,no
3,1,0,0,0,0,1,1,3,0,3,3,0,no
3,2,0,0,0,0,1,1,3,0,3,3,0,no
3,1,0,0,0,0,1,1,3,0,3,3,1,no
3,2,0,0,0,0,1,1,3,0,3,3,1,no
3,1,0,0,0,0,1,1,3,0,3,3,1,no
3,2,0,0,0,0,1,1,3,0,3,3,1,no
3,1,0,0,0,0,1,1,3,0,3,3,0,no
3,2,0,0,0,0,1,1,3,0,3,3,0,no
3,1,0,0,0,0,1,1,3,0,3,3,0,no
3,2,0,0,0,0,1,1,3,0,3,3,0,no
4,2,0,0,0,0,1,1,4,0,4,4,0,no
43,3,8,2,1,7,1,1,43,0,43,43,0,no
0,3,0,0,0,0,1,1,0,0,0,0,0,no
3,2,0,0,0,0,1,1,3,0,3,3,0,no
20,3,5,1,1,0,1,1,20,0,20,20,0,no
4,2,0,0,0,0,1,1,4,0,4,4,0,no
5,2,0,0,0,1,2,2,6,1,6,3.5,0,no
9,2,1,1,1,2,5,4,19,10,12,5.8,1,no
3,1,0,0,0,0,1,1,3,0,3,3,0,no
8,0,1,1,1,1,5,4,17,9,12,5.2,1,no
3,1,0,0,0,0,1,1,3,0,3,3,0,no
3,0,0,0,0,0,1,1,3,0,3,3,0,no
3,0,0,0,0,0,1,1,3,0,3,3,0,no
3,0,0,0,0,0,1,1,3,0,3,3,0,no
9,2,0,0,1,0,2,2,10,1,10,5.5,0,no
9,2,0,0,1,0,2,1,10,1,10,5.5,0,no
3,2,0,0,0,0,1,1,3,0,3,3,0,no
17,3,5,1,1,0,1,1,17,0,17,17,0,no
3,2,0,0,0,0,1,1,3,0,3,3,0,no
0,3,0,0,0,0,1,1,0,0,0,0,0,no
0,2,0,0,0,0,1,1,0,0,0,0,0,no
0,2,0,0,0,0,1,1,0,0,0,0,0,no
0,1,0,0,0,0,5,3,18,18,16,7.2,1,no
0,3,0,0,0,0,1,1,0,0,0,0,0,no
0,1,0,0,0,0,1,1,0,0,0,0,0,no
0,2,0,0,0,0,1,1,0,0,0,0,0,no
0,2,0,0,0,0,1,1,0,0,0,0,0,no
0,2,0,0,0,0,1,1,0,0,0,0,0,no
0,1,0,0,0,0,1,1,0,0,0,0,0,no
3,2,0,0,0,0,1,1,3,0,3,3,0,no
20,3,5,1,1,0,1,1,20,0,20,20,0,no
3,0,0,0,0,0,1,1,3,0,3,3,0,no
20,2,2,2,0,1,1,1,20,0,20,20,0,no
17,0,2,2,0,1,1,1,17,0,17,17,0,no
3,1,0,0,0,0,1,1,3,0,3,3,0,no
3,0,0,0,0,0,1,1,3,0,3,3,0,no
3,1,0,0,0,0,1,1,3,0,3,3,0,no
3,2,0,0,0,0,1,1,3,0,3,3,0,no
34,3,6,3,2,1,1,1,34,0,34,34,1,no
4,2,0,0,0,0,1,1,4,0,4,4,0,no
11,5,2,1,0,1,1,1,11,0,11,11,0,no
3,0,0,0,0,0,1,1,3,0,3,3,0,no
3,0,0,0,0,0,1,1,3,0,3,3,0,no
3,0,0,0,0,0,1,1,3,0,3,3,0,no
3,0,0,0,0,0,1,1,3,0,3,3,0,no
0,0,0,0,1,0,1,1,0,0,0,0,0,no
0,1,0,0,1,0,1,1,0,0,0,0,0,no
0,0,0,0,1,0,1,1,0,0,0,0,0,no
0,1,0,0,1,0,1,1,0,0,0,0,0,no
0,3,0,0,1,0,1,1,0,0,0,0,0,no
0,0,0,0,1,0,1,1,0,0,0,0,0,no
0,1,0,0,1,0,1,1,0,0,0,0,0,no
0,0,0,0,1,0,1,1,0,0,0,0,0,no
0,0,0,0,1,0,1,1,0,0,0,0,0,no
0,0,0,0,1,0,1,1,0,0,0,0,0,no
0,2,0,0,1,0,1,1,0,0,0,0,0,no
0,2,0,0,1,0,1,1,0,0,0,0,0,no
0,2,0,0,1,0,1,1,0,0,0,0,0,no
0,1,0,0,1,0,1,1,0,0,0,0,0,no
0,1,0,0,1,0,1,1,0,0,0,0,0,no
0,2,0,0,1,0,1,1,0,0,0,0,0,no
0,1,0,0,1,0,1,1,0,0,0,0,0,no
4,1,0,0,0,0,2,2,5,1,4,3,0,no
11,2,1,1,0,0,4,2,17,6,12,5.75,0,no
8,0,1,1,0,0,3,2,21,13,21,11.333333,1,no
3,1,0,0,0,0,1,1,3,0,3,3,0,no
3,2,0,0,0,0,1,1,3,0,3,3,0,no
3,0,0,0,0,0,1,1,3,0,3,3,0,no
3,0,0,0,0,0,1,1,3,0,3,3,0,no
3,0,0,0,0,0,1,1,3,0,3,3,0,no
3,0,0,0,0,0,1,1,3,0,3,3,0,no
3,1,0,0,0,0,1,1,3,0,3,3,0,no
3,1,0,0,0,0,2,2,4,1,4,2.5,0,no
3,4,0,0,0,0,4,3,21,18,17,9.75,0,no
3,4,0,0,0,0,2,2,4,1,3,2.5,0,no
7,4,1,1,0,1,3,2,22,15,20,12.333333,1,no
35,2,9,4,2,4,3,3,35,0,29,11.666667,0,no
3,1,0,0,0,0,1,1,3,0,3,3,0,no
3,2,0,0,0,0,1,1,3,0,3,3,0,no
7,2,1,1,0,0,1,1,7,0,7,7,0,no
4,1,0,0,0,0,3,2,5,1,4,2,0,no
3,1,0,0,0,0,2,1,4,1,3,2.5,0,no
3,4,0,0,0,0,4,4,27,24,25,12.75,0,no
17,6,4,2,0,3,4,2,21,4,15,6.25,1,no
4,5,0,0,0,1,2,2,4,0,3,2,0,no
3,5,0,0,0,0,1,1,3,0,3,3,0,no
7,6,1,1,0,0,3,2,9,2,7,3.666667,0,no
3,4,0,0,0,0,3,3,5,2,3,2.333333,0,no
3,5,0,0,0,0,3,3,17,14,16,10.333333,0,no
15,2,3,2,2,2,2,2,16,1,15,8.5,0,no
9,3,1,1,0,2,3,3,11,2,10,4.333333,1,no
10,4,1,1,1,1,4,2,29,19,25,12,1,no
16,5,1,1,0,0,2,2,17,1,16,9,0,no
3,1,0,0,1,0,1,1,3,0,3,3,0,no
5,2,0,0,0,2,2,2,5,0,3,2.5,0,no
6,2,1,1,5,0,1,1,6,0,6,6,0,no
3,1,0,0,0,0,2,1,4,1,3,2.5,0,no
5,3,0,0,0,1,4,3,23,18,20,10.25,1,no
9,4,1,1,0,1,2,1,16,7,16,11.5,0,no
5,2,0,0,0,1,6,4,27,22,20,8.166667,1,no
38,4,10,6,6,4,3,1,39,1,33,13.333333,1,no
4,3,0,0,0,1,2,2,4,0,3,2,0,no
3,3,0,0,0,0,1,1,3,0,3,3,0,no
11,4,2,1,0,0,2,1,12,1,11,6.5,0,no
3,2,0,0,0,0,1,1,3,0,3,3,0,no
12,3,2,1,0,0,2,2,13,1,12,7,0,no
3,2,0,0,0,0,3,3,5,2,3,2.333333,1,no
3,2,0,0,0,0,1,1,3,0,3,3,0,no
5,1,0,0,0,1,1,1,5,0,5,5,0,no
12,3,0,0,0,2,1,1,12,0,12,12,0,no
32,2,7,2,0,1,3,2,32,0,27,10.666667,1,no
5,1,0,0,0,1,1,1,5,0,5,5,0,no
13,1,1,1,0,2,1,1,13,0,13,13,0,no
5,1,0,0,0,1,1,1,5,0,5,5,0,no
3,1,0,0,0,0,1,1,3,0,3,3,0,no
16,1,4,1,0,1,3,2,17,1,13,6,1,no
3,0,0,0,0,0,1,1,3,0,3,3,0,no
3,1,0,0,0,0,1,1,3,0,3,3,0,no
5,3,1,1,0,1,1,1,5,0,5,5,0,no
3,1,0,0,0,0,1,1,3,0,3,3,0,no
3,1,0,0,0,0,1,1,3,0,3,3,0,no
3,2,0,0,0,0,1,1,3,0,3,3,0,no
3,2,0,0,0,0,1,1,3,0,3,3,0,no
12,2,1,1,0,0,1,1,12,0,12,12,0,no
0,0,0,0,0,0,1,1,0,0,0,0,0,no
13,1,2,2,1,2,1,1,13,0,13,13,0,no
19,2,4,3,3,2,1,1,19,0,19,19,0,no
17,0,1,2,0,0,1,1,17,0,17,17,0,no
0,0,0,0,0,0,1,1,0,0,0,0,0,no
5,1,0,0,0,2,1,1,5,0,5,5,0,no
4,1,0,0,0,1,1,1,4,0,4,4,0,no
0,1,0,0,0,0,1,1,0,0,0,0,0,no
0,1,0,0,0,0,1,1,0,0,0,0,0,no
3,0,0,0,0,0,1,1,3,0,3,3,0,no
3,0,0,0,0,0,1,1,3,0,3,3,0,no
3,1,0,0,0,0,1,1,3,0,3,3,0,no
12,1,2,2,0,2,1,1,12,0,12,12,0,no
3,0,0,0,0,0,1,1,3,0,3,3,0,no
3,0,0,0,0,0,1,1,3,0,3,3,0,no
0,1,0,0,0,0,1,1,0,0,0,0,0,no
0,1,0,0,0,0,1,1,0,0,0,0,0,no
0,0,0,0,0,0,1,1,0,0,0,0,0,no
3,0,0,0,0,0,1,1,3,0,3,3,0,no
8,0,0,1,0,0,1,1,8,0,8,8,0,no
3,0,0,0,0,0,1,1,3,0,3,3,0,no
14,2,3,1,1,2,1,1,14,0,14,14,0,no
0,2,0,0,0,0,1,1,0,0,0,0,0,no
19,2,4,2,1,1,1,1,19,0,19,19,0,no
0,1,0,0,0,0,1,1,0,0,0,0,0,no
12,2,1,2,0,0,1,1,12,0,12,12,0,no
13,3,1,1,3,2,1,1,13,0,13,13,0,no
3,2,0,0,0,0,1,1,3,0,3,3,0,no
30,2,6,2,3,3,1,1,30,0,30,30,0,no
13,1,2,1,0,2,1,1,13,0,13,13,0,no
18,2,1,2,1,0,1,1,18,0,18,18,0,no
10,2,1,1,1,1,1,1,10,0,10,10,0,no
4,1,0,0,1,0,1,1,4,0,4,4,0,no
5,1,1,1,1,0,1,1,5,0,5,5,0,no
4,0,0,0,1,0,1,1,4,0,4,4,0,no
15,0,3,2,0,2,1,1,15,0,15,15,0,no
4,2,0,0,0,0,1,1,4,0,4,4,0,no
8,2,1,1,0,1,1,1,8,0,8,8,1,no
8,2,1,1,1,1,1,1,8,0,8,8,0,no
8,2,1,1,1,1,1,1,8,0,8,8,0,no
3,7,0,0,0,0,1,1,3,0,3,3,1,no
3,1,0,0,0,0,1,1,3,0,3,3,0,no
3,0,0,0,0,0,1,1,3,0,3,3,0,no
3,0,0,0,0,0,1,1,3,0,3,3,0,no
57,3,12,5,1,8,3,1,59,2,58,20.333333,1,no
13,1,2,1,1,3,1,1,13,0,13,13,0,no
12,3,2,1,1,2,1,1,12,0,12,12,0,no
0,3,0,0,0,0,1,1,0,0,0,0,1,no
3,1,0,0,0,0,1,1,3,0,3,3,0,no
11,2,2,1,1,1,1,1,11,0,11,11,0,no
8,2,0,1,0,0,1,1,8,0,8,8,0,no
4,2,0,0,1,0,1,1,4,0,4,4,0,no
5,1,1,1,0,1,1,1,5,0,5,5,0,no
2,2,0,0,0,0,1,1,2,0,2,2,1,no
10,2,3,1,2,0,1,1,10,0,10,10,0,no
3,2,0,0,0,0,1,1,3,0,3,3,0,no
6,2,1,1,0,0,1,1,6,0,6,6,0,no
10,2,2,1,0,1,1,1,10,0,10,10,0,no
10,1,2,1,0,1,1,1,10,0,10,10,0,no
9,7,0,0,0,0,1,1,9,0,9,9,1,no
10,1,2,1,1,0,1,1,10,0,10,10,0,no
15,1,2,1,1,2,1,1,15,0,15,15,0,no
3,0,0,0,0,0,1,1,3,0,3,3,0,no
3,0,0,0,0,0,1,1,3,0,3,3,0,no
10,1,2,2,0,0,1,1,10,0,10,10,0,no
10,1,3,3,0,0,1,1,10,0,10,10,0,no
20,1,3,1,0,2,3,2,20,0,18,6.666667,1,no
33,1,9,4,1,3,1,1,33,0,33,33,0,no
3,0,0,0,0,0,1,1,3,0,3,3,0,no
4,1,0,0,0,1,1,1,4,0,4,4,0,no
13,1,2,1,0,0,1,1,13,0,13,13,0,no
5,1,1,1,1,0,1,1,5,0,5,5,0,no
4,2,0,0,0,0,1,1,4,0,4,4,0,no
3,0,0,0,0,0,1,1,3,0,3,3,0,no
0,0,0,0,0,0,1,1,0,0,0,0,0,no
12,0,1,1,0,1,1,1,1,1,2,2,0,no
3,2,0,0,0,0,1,1,3,0,3,3,0,no
26,1,3,1,1,2,1,1,26,0,26,26,0,no
5,0,0,0,0,1,1,1,5,0,5,5,0,no
14,1,2,1,1,0,1,1,14,0,14,14,0,no
6,3,0,0,0,0,1,1,6,0,6,6,0,no
3,2,0,0,0,0,1,1,3,0,3,3,0,no
6,2,1,1,0,0,2,2,7,1,6,4,1,no
20,2,4,1,1,2,1,1,20,0,20,20,0,no
7,3,1,1,1,0,1,1,7,0,7,7,0,no
7,0,1,1,0,3,1,1,7,0,7,7,0,no
3,0,0,0,0,0,1,1,3,0,3,3,0,no
4,2,0,0,1,0,1,1,4,0,4,4,0,no
3,0,0,0,0,0,1,1,3,0,3,3,0,no
46,2,9,3,4,6,2,1,46,0,33,23,0,no
3,1,0,0,0,0,1,1,3,0,3,3,0,no
3,2,0,0,0,0,1,1,3,0,3,3,0,no
4,3,0,0,0,0,1,1,4,0,4,4,0,no
7,4,0,0,0,0,1,1,7,0,7,7,0,no
3,0,0,0,0,0,1,1,3,0,3,3,0,no
22,1,4,1,0,0,1,1,22,0,22,22,0,no
26,0,3,1,0,1,1,1,26,0,26,26,0,no
8,2,0,0,0,1,1,1,8,0,8,8,0,no
4,1,0,0,0,1,1,1,4,0,4,4,0,no
3,0,0,0,0,0,1,1,3,0,3,3,0,no
10,1,2,1,0,1,1,1,10,0,10,10,0,no
12,0,1,1,0,2,1,1,12,0,12,12,0,no
17,1,2,1,0,2,1,1,17,0,17,17,0,no
14,1,2,2,1,1,1,1,14,0,14,14,0,no
20,1,4,2,0,1,1,1,20,0,20,20,0,no
5,0,0,0,0,1,1,1,5,0,5,5,0,no
15,2,2,1,1,1,1,1,15,0,15,15,0,no
14,1,2,1,0,0,1,1,14,0,14,14,0,no
3,2,0,0,0,0,1,1,3,0,3,3,0,no
6,0,0,0,0,1,1,1,6,0,6,6,0,no
6,4,0,0,0,0,1,1,6,0,6,6,0,no
9,2,2,1,1,0,1,1,3,0,3,3,1,no
11,2,3,1,3,0,0,0,0,0,0,0,0,no
8,0,1,1,1,0,1,1,3,0,3,3,0,no
5,2,0,0,0,0,1,1,5,0,5,5,0,no
31,1,6,3,1,3,1,1,2,0,2,2,0,no
6,2,0,0,0,0,2,1,6,0,5,3,1,no
9,3,1,1,0,1,1,1,9,0,9,9,0,no
13,0,3,2,0,2,1,1,13,0,13,13,0,no
3,0,0,0,0,0,1,1,3,0,3,3,0,no
5,1,0,0,0,2,1,1,5,0,5,5,0,no
4,1,0,0,0,1,1,1,4,0,4,4,0,no
17,1,3,1,0,3,1,1,17,0,17,17,0,no
3,1,0,0,0,0,1,1,3,0,3,3,0,no
8,1,1,1,0,1,1,1,8,0,8,8,0,no
12,1,2,2,0,2,1,1,12,0,12,12,0,no
3,0,0,0,0,0,1,1,3,0,3,3,0,no
19,2,4,2,1,3,1,1,19,0,19,19,0,no
3,2,0,0,0,0,1,1,3,0,3,3,1,no
3,1,0,0,0,0,1,1,3,0,3,3,0,no
3,2,0,0,0,0,1,1,3,0,3,3,0,no
21,3,5,3,0,2,1,1,21,0,21,21,0,no
9,1,1,1,0,1,1,1,9,0,9,9,0,no
3,2,0,0,0,0,1,1,3,0,3,3,0,no
8,3,1,1,0,1,1,1,8,0,8,8,1,no
4,2,0,0,0,0,1,1,4,0,4,4,0,no
22,3,1,1,1,3,3,1,27,5,26,10.666667,1,no
12,3,2,2,0,2,2,1,66,54,66,60,0,no
14,3,2,2,0,2,1,1,14,0,14,14,1,no
3,2,0,0,0,0,1,1,3,0,3,3,0,no
5,2,0,0,0,0,3,1,10,5,9,5,1,no
3,2,0,0,0,0,1,1,3,0,3,3,0,no
6,0,0,0,0,1,1,1,6,0,6,6,0,no
5,2,0,0,0,0,1,1,5,0,5,5,0,no
30,3,4,1,0,3,1,1,30,0,30,30,0,no
13,0,3,2,0,2,1,1,13,0,13,13,0,no
3,0,0,0,0,0,1,1,3,0,3,3,0,no
4,1,0,0,0,1,1,1,4,0,4,4,0,no
3,1,0,0,0,0,1,1,3,0,3,3,0,no
17,1,3,1,0,3,1,1,17,0,17,17,0,no
3,1,0,0,0,0,1,1,3,0,3,3,0,no
17,1,3,3,0,2,1,1,17,0,17,17,0,no
3,0,0,0,0,0,1,1,3,0,3,3,0,no
9,2,1,1,1,1,1,1,9,0,9,9,0,no
3,1,0,0,0,0,1,1,3,0,3,3,0,no
3,2,0,0,0,0,1,1,3,0,3,3,0,no
21,3,5,3,0,2,1,1,21,0,21,21,0,no
9,1,1,1,0,1,1,1,9,0,9,9,0,no
10,3,1,1,0,3,1,1,10,0,10,10,1,no
23,1,2,2,0,3,1,1,23,0,23,23,1,no
8,2,1,1,0,0,1,1,8,0,8,8,1,no
3,2,0,0,0,0,1,1,3,0,3,3,1,no
8,1,1,1,0,0,1,1,8,0,8,8,0,no
4,2,0,0,0,0,3,1,5,1,4,2,1,no
3,3,0,0,0,0,1,1,3,0,3,3,0,no
3,7,0,0,0,0,1,1,3,0,3,3,1,no
3,0,0,0,0,0,1,1,3,0,3,3,0,no
6,1,1,1,0,0,1,1,6,0,6,6,0,no
7,3,1,1,0,0,2,1,47,40,47,43.5,0,no
9,1,1,1,1,2,2,1,18,9,18,13.5,0,no
14,3,2,2,0,2,1,1,14,0,14,14,1,no
6,1,1,1,0,0,2,1,7,1,7,4,0,no
4,2,0,0,0,0,1,1,4,0,4,4,1,no
8,2,1,1,0,0,1,1,8,0,8,8,0,no
4,7,0,0,0,0,1,1,4,0,4,4,1,no
9,1,2,2,2,0,1,1,9,0,9,9,0,no
12,1,1,1,0,1,1,1,12,0,12,12,0,no
12,0,1,1,0,1,1,1,12,0,12,12,0,no
10,1,2,2,0,0,1,1,10,0,10,10,0,no
5,1,1,1,0,0,1,1,5,0,5,5,0,no
5,1,1,1,0,0,1,1,5,0,5,5,0,no
3,2,0,0,0,0,1,1,3,0,3,3,0,no
6,0,0,0,0,1,2,1,6,0,5,3,0,no
8,1,1,1,1,0,1,1,8,0,8,8,0,no
3,0,0,0,0,0,1,1,3,0,3,3,0,no
3,0,0,0,0,0,1,1,3,0,3,3,0,no
5,0,0,0,0,1,1,1,5,0,5,5,0,no
14,0,0,0,0,0,1,1,14,0,14,14,0,no
0,0,0,0,0,0,1,1,0,0,0,0,0,no
2,2,0,0,0,0,1,1,2,0,2,2,0,no
2,2,0,0,0,0,1,1,2,0,2,2,0,no
3,0,0,0,0,0,1,1,3,0,3,3,0,no
3,0,0,0,0,0,1,1,3,0,3,3,0,no
3,1,0,0,0,0,1,1,3,0,3,3,1,no
3,0,0,0,0,0,1,1,3,0,3,3,0,no
4,1,0,0,0,1,1,1,4,0,4,4,0,no
0,3,0,0,1,0,1,1,0,0,0,0,0,no
0,1,0,0,1,0,1,1,0,0,0,0,0,no
6,1,1,1,0,1,2,1,7,1,6,4,0,no
6,3,1,1,0,1,2,1,7,1,6,4,0,no
8,1,2,2,0,1,2,1,9,1,8,5,0,no
6,0,1,1,0,1,2,1,7,1,6,4,0,no
0,1,0,0,1,0,1,1,0,0,0,0,0,no
0,0,0,0,1,0,1,1,0,0,0,0,0,no
0,2,0,0,1,0,1,1,0,0,0,0,0,no
0,2,0,0,1,0,1,1,0,0,0,0,0,no
12,2,0,0,0,0,1,1,12,0,12,12,0,no
3,3,0,0,0,0,1,1,3,0,3,3,0,no
16,4,2,1,2,0,1,1,16,0,16,16,0,no
3,3,0,0,0,0,2,2,4,1,3,2.5,0,no
33,7,5,3,2,2,1,1,33,0,33,33,0,no
3,4,0,0,0,0,1,1,3,0,3,3,0,no
3,0,0,0,0,0,1,1,3,0,3,3,0,no
2,2,0,0,1,0,1,1,2,0,2,2,0,no
2,2,0,0,1,0,1,1,2,0,2,2,0,no
5,2,1,1,1,0,1,1,5,0,5,5,0,no
5,2,1,1,1,0,1,1,5,0,5,5,0,no
3,2,0,0,0,0,1,1,3,0,3,3,0,no
3,2,0,0,0,0,1,1,3,0,3,3,0,no
6,2,1,1,1,0,1,1,6,0,6,6,0,no
5,2,1,1,1,0,1,1,5,0,5,5,0,no
9,0,2,2,0,0,1,1,9,0,9,9,0,no
7,1,1,1,0,0,1,1,7,0,7,7,0,no
7,2,1,1,0,0,1,1,7,0,7,7,0,no
7,1,1,1,0,0,1,1,7,0,7,7,0,no
4,2,0,0,0,0,1,1,4,0,4,4,0,no
3,0,0,0,0,0,1,1,3,0,3,3,0,no
3,1,0,0,0,0,1,1,3,0,3,3,0,no
3,2,0,0,0,0,1,1,3,0,3,3,0,no
3,0,0,0,0,0,1,1,3,0,3,3,0,no
3,1,0,0,0,0,1,1,3,0,3,3,0,no
3,1,0,0,0,0,1,1,3,0,3,3,0,no
11,2,2,1,0,1,1,1,11,0,11,11,0,no
3,1,0,0,0,0,1,1,3,0,3,3,0,no
18,1,5,2,2,2,1,1,18,0,18,18,0,no
7,0,1,1,0,1,1,1,7,0,7,7,0,no
14,1,2,1,4,1,1,1,14,0,14,14,0,no
3,2,0,0,0,0,1,1,3,0,3,3,0,no
10,3,1,1,2,0,1,1,10,0,10,10,0,no
6,1,1,1,4,1,1,1,6,0,6,6,0,no
3,0,0,0,0,0,1,1,3,0,3,3,0,no
3,0,0,0,0,0,1,1,3,0,3,3,0,no
3,0,0,0,0,0,1,1,3,0,3,3,0,no
3,0,0,0,0,0,1,1,3,0,3,3,0,no
3,0,0,0,0,0,1,1,3,0,3,3,0,no
3,0,0,0,0,0,1,1,3,0,3,3,1,no
3,0,0,0,0,0,1,1,3,0,3,3,0,no
3,1,0,0,0,0,1,1,3,0,3,3,0,no
5,0,0,0,0,1,1,1,5,0,5,5,0,no
2,0,0,0,1,0,1,1,2,0,2,2,0,no
3,1,0,0,0,0,1,1,3,0,3,3,0,no
3,0,0,0,0,0,1,1,3,0,3,3,0,no
3,0,0,0,0,0,1,1,3,0,3,3,0,no
3,1,0,0,0,0,1,1,3,0,3,3,0,no
4,2,0,0,0,0,1,1,4,0,4,4,0,no
3,0,0,0,0,0,1,1,3,0,3,3,0,no
3,2,0,0,0,0,1,1,3,0,3,3,0,no
3,0,0,0,0,0,1,1,3,0,3,3,0,no
8,2,3,2,4,3,1,1,8,0,8,8,0,no
3,1,0,0,0,0,1,1,3,0,3,3,0,no
11,1,2,2,1,3,2,2,12,1,11,6.5,1,no
0,3,0,0,1,0,1,1,0,0,0,0,0,no
3,1,0,0,0,0,1,1,3,0,3,3,0,no
4,2,0,0,0,0,1,1,4,0,4,4,0,no
4,3,0,0,0,0,1,1,4,0,4,4,0,no
4,2,0,0,0,0,1,1,4,0,4,4,0,no
45,2,18,18,0,0,5,2,45,0,25,9,1,no
3,0,0,0,0,0,1,1,3,0,3,3,0,no
3,1,0,0,0,0,1,1,3,0,3,3,0,no
3,1,0,0,0,0,1,1,3,0,3,3,0,no
3,1,0,0,0,0,1,1,3,0,3,3,0,no
4,1,0,0,0,0,2,2,5,1,4,3,0,no
8,1,2,1,2,2,1,1,8,0,8,8,0,no
3,0,0,0,0,0,1,1,3,0,3,3,0,no
3,1,0,0,0,0,1,1,3,0,3,3,0,no
3,1,0,0,0,0,1,1,3,0,3,3,0,no
3,2,0,0,0,0,1,1,3,0,3,3,0,no
3,1,0,0,0,0,1,1,3,0,3,3,0,no
3,1,0,0,0,0,1,1,3,0,3,3,0,no
3,1,0,0,0,0,1,1,3,0,3,3,0,no
3,1,0,0,0,0,1,1,3,0,3,3,0,no
3,1,0,0,0,0,1,1,3,0,3,3,0,no
3,1,0,0,0,0,1,1,3,0,3,3,1,no
3,1,0,0,0,0,1,1,3,0,3,3,0,no
3,1,0,0,0,0,1,1,3,0,3,3,0,no
3,1,0,0,0,0,1,1,3,0,3,3,0,no
3,2,0,0,0,0,1,1,3,0,3,3,1,no
3,1,0,0,0,0,1,1,3,0,3,3,0,no
3,1,0,0,0,0,1,1,3,0,3,3,0,no
3,1,0,0,0,0,1,1,3,0,3,3,0,no
3,1,0,0,0,0,1,1,3,0,3,3,0,no
3,1,0,0,0,0,1,1,3,0,3,3,0,no
3,1,0,0,0,0,1,1,3,0,3,3,0,no
3,2,0,0,0,0,1,1,3,0,3,3,0,no
2,0,0,0,0,0,1,1,2,0,2,2,1,no
3,0,0,0,0,0,1,1,3,0,3,3,1,no
2,1,0,0,1,0,1,1,2,0,2,2,1,no
60,1,0,0,84,0,14,2,64,4,32,4.857143,1,no
3,1,0,0,0,0,1,1,3,0,3,3,0,no
2,1,0,0,1,0,1,1,2,0,2,2,0,no
3,0,0,0,0,0,1,1,3,0,3,3,0,no
3,0,0,0,0,0,1,1,3,0,3,3,0,no
3,0,0,0,2,0,1,1,3,0,3,3,0,no
12,0,2,1,2,1,1,1,12,0,12,12,0,no
3,0,0,0,0,0,1,1,3,0,3,3,0,no
3,0,0,0,1,0,1,1,3,0,3,3,0,no
3,0,0,0,0,0,1,1,3,0,3,3,0,no
3,0,0,0,1,0,1,1,3,0,3,3,0,no
11,0,2,1,2,1,1,1,11,0,11,11,0,no
3,0,0,0,0,0,1,1,3,0,3,3,0,no
3,1,0,0,1,0,1,1,3,0,3,3,0,no
3,0,0,0,0,0,1,1,3,0,3,3,0,no
4,1,0,0,2,1,1,1,4,0,4,4,0,no
8,1,1,1,1,1,1,1,8,0,8,8,0,no
8,2,1,1,1,1,1,1,8,0,8,8,0,no
3,1,0,0,1,0,1,1,3,0,3,3,0,no
3,2,0,0,1,0,1,1,3,0,3,3,0,no
3,1,0,0,1,0,1,1,3,0,3,3,0,no
3,2,0,0,1,0,1,1,3,0,3,3,0,no
3,1,0,0,1,0,1,1,3,0,3,3,0,no
3,2,0,0,1,0,1,1,3,0,3,3,0,no
3,1,0,0,1,0,1,1,3,0,3,3,0,no
3,2,0,0,1,0,1,1,3,0,3,3,0,no
3,0,0,0,0,0,1,1,3,0,3,3,0,no
3,0,0,0,2,0,1,1,3,0,3,3,0,no
7,1,1,1,1,0,1,1,7,0,7,7,0,no
3,0,0,0,0,0,1,1,3,0,3,3,0,no
4,1,0,0,0,0,1,1,4,0,4,4,0,no
7,0,1,1,2,1,1,1,7,0,7,7,0,no
7,0,1,1,2,1,1,1,7,0,7,7,0,no
12,0,1,1,6,3,1,1,12,0,12,12,0,no
6,0,0,0,1,0,1,1,6,0,6,6,0,no
6,0,0,0,1,0,1,1,6,0,6,6,0,no
3,0,0,0,1,0,1,1,3,0,3,3,0,no
3,0,0,0,0,0,1,1,3,0,3,3,0,no
3,0,0,0,2,0,1,1,3,0,3,3,0,no
3,0,0,0,2,0,1,1,3,0,3,3,0,no
3,0,0,0,1,0,1,1,3,0,3,3,0,no
3,0,0,0,0,0,1,1,3,0,3,3,0,no
3,0,0,0,1,0,1,1,3,0,3,3,0,no
3,0,0,0,1,0,1,1,3,0,3,3,0,no
6,0,1,1,2,0,1,1,6,0,6,6,0,no
4,0,1,1,1,0,1,1,4,0,4,4,0,no
27,2,5,3,1,2,1,1,27,0,27,27,0,no
8,1,1,1,2,0,1,1,8,0,8,8,0,no
9,1,2,1,3,0,1,1,9,0,9,9,0,no
9,1,1,1,0,0,1,1,9,0,9,9,0,no
0,0,0,0,0,0,1,1,0,0,0,0,0,no
0,0,0,0,0,0,1,1,0,0,0,0,0,no
3,1,0,0,0,0,1,1,3,0,3,3,1,no
2,1,0,0,1,0,1,1,2,0,2,2,1,no
3,0,0,0,0,0,1,1,3,0,3,3,1,no
3,0,0,0,0,0,1,1,3,0,3,3,1,no
3,0,0,0,2,0,1,1,3,0,3,3,1,no
3,0,0,0,1,0,1,1,3,0,3,3,1,no
3,0,0,0,1,0,1,1,3,0,3,3,1,no
15,0,3,1,3,1,2,1,16,1,15,8.5,1,no
3,0,0,0,0,0,1,1,3,0,3,3,1,no
3,0,0,0,1,0,2,1,4,1,3,2.5,1,no
3,0,0,0,1,0,2,1,4,1,3,2.5,1,no
4,0,0,0,1,0,2,1,4,0,3,2,1,no
3,0,0,0,1,0,1,1,3,0,3,3,1,no
19,0,4,1,2,1,2,1,19,0,10,9.5,1,no
3,0,0,0,0,0,1,1,3,0,3,3,1,no
3,1,0,0,1,0,1,1,3,0,3,3,1,no
3,0,0,0,0,0,1,1,3,0,3,3,1,no
4,1,0,0,2,1,1,1,4,0,4,4,1,no
8,1,1,1,1,1,1,1,8,0,8,8,1,no
8,2,1,1,1,1,1,1,8,0,8,8,1,no
3,1,0,0,1,0,1,1,3,0,3,3,1,no
3,2,0,0,1,0,1,1,3,0,3,3,1,no
3,1,0,0,1,0,1,1,3,0,3,3,1,no
3,2,0,0,1,0,1,1,3,0,3,3,1,no
3,1,0,0,1,0,1,1,3,0,3,3,1,no
3,2,0,0,1,0,1,1,3,0,3,3,1,no
3,1,0,0,1,0,1,1,3,0,3,3,1,no
3,2,0,0,1,0,1,1,3,0,3,3,1,no
3,0,0,0,0,0,1,1,3,0,3,3,1,no
3,0,0,0,2,0,1,1,3,0,3,3,1,no
10,1,2,1,2,0,2,1,11,1,10,6,1,no
3,0,0,0,0,0,2,1,3,0,2,1.5,1,no
4,1,0,0,0,0,1,1,4,0,4,4,1,no
7,0,1,1,2,1,2,1,7,0,6,3.5,1,no
7,0,1,1,2,1,2,1,7,0,6,3.5,1,no
20,0,3,1,7,3,2,1,20,0,12,10,1,no
12,0,1,1,3,0,2,1,12,0,7,6,1,no
10,0,1,1,2,0,2,1,10,0,5,5,1,no
6,0,0,0,1,0,2,1,6,0,5,3,1,no
3,0,0,0,1,0,2,1,4,1,3,2.5,1,no
3,0,0,0,0,0,2,1,5,2,5,3.5,1,no
3,0,0,0,2,0,1,1,3,0,3,3,1,no
3,0,0,0,2,0,1,1,3,0,3,3,1,no
3,0,0,0,1,0,1,1,3,0,3,3,1,no
7,0,1,1,1,0,2,1,7,0,4,3.5,1,no
5,0,0,0,1,0,1,1,5,0,5,5,1,no
7,0,1,1,6,0,1,1,7,0,7,7,1,no
7,0,1,1,1,0,1,1,7,0,7,7,1,no
3,0,0,0,0,0,2,1,4,1,3,2.5,1,no
3,0,0,0,1,0,2,1,4,1,3,2.5,1,no
3,0,0,0,1,0,2,1,4,1,3,2.5,1,no
3,0,0,0,1,0,1,1,3,0,3,3,1,no
12,0,3,1,2,0,2,1,12,0,9,6,1,no
5,0,1,1,0,0,1,1,5,0,5,5,1,no
37,2,7,3,3,3,2,1,37,0,34,18.5,1,no
8,1,1,1,2,0,1,1,8,0,8,8,1,no
12,1,3,1,3,0,1,1,12,0,12,12,1,no
14,1,2,2,4,0,2,1,14,0,9,7,1,no
13,1,2,2,1,0,2,1,13,0,8,6.5,1,no
10,1,1,1,1,0,2,1,10,0,5,5,1,no
9,1,1,1,0,0,2,1,9,0,8,4.5,1,no
0,0,0,0,1,0,1,1,0,0,0,0,1,no
0,0,0,0,1,0,1,1,0,0,0,0,1,no
0,0,0,0,0,0,1,1,0,0,0,0,1,no
0,0,0,0,0,0,1,1,0,0,0,0,1,no
0,0,0,0,0,0,1,1,0,0,0,0,1,no
3,1,0,0,0,0,1,1,3,0,3,3,0,no
2,1,0,0,1,0,1,1,2,0,2,2,0,no
3,0,0,0,0,0,1,1,3,0,3,3,0,no
3,0,0,0,0,0,1,1,3,0,3,3,0,no
3,0,0,0,0,0,1,1,3,0,3,3,0,no
3,0,0,0,2,0,1,1,3,0,3,3,0,no
13,0,2,2,1,3,1,1,13,0,13,13,0,no
10,0,1,1,1,2,1,1,10,0,10,10,0,no
15,0,3,1,3,1,1,1,15,0,15,15,0,no
3,0,0,0,1,0,1,1,3,0,3,3,0,no
3,0,0,0,1,0,1,1,3,0,3,3,0,no
4,0,0,0,0,0,1,1,4,0,4,4,0,no
3,0,0,0,1,0,1,1,3,0,3,3,0,no
15,0,3,1,2,1,1,1,15,0,15,15,0,no
3,0,0,0,0,0,1,1,3,0,3,3,0,no
3,1,0,0,1,0,1,1,3,0,3,3,0,no
3,0,0,0,0,0,1,1,3,0,3,3,0,no
4,1,0,0,2,1,1,1,4,0,4,4,0,no
8,1,1,1,1,1,1,1,8,0,8,8,0,no
8,2,1,1,1,1,1,1,8,0,8,8,0,no
3,1,0,0,1,0,1,1,3,0,3,3,0,no
3,2,0,0,1,0,1,1,3,0,3,3,0,no
3,1,0,0,1,0,1,1,3,0,3,3,0,no
3,2,0,0,1,0,1,1,3,0,3,3,0,no
3,1,0,0,1,0,1,1,3,0,3,3,0,no
3,2,0,0,1,0,1,1,3,0,3,3,0,no
3,1,0,0,1,0,1,1,3,0,3,3,0,no
3,2,0,0,1,0,1,1,3,0,3,3,0,no
3,0,0,0,0,0,1,1,3,0,3,3,0,no
3,0,0,0,2,0,1,1,3,0,3,3,0,no
10,1,2,1,2,0,1,1,10,0,10,10,0,no
3,0,0,0,0,0,1,1,3,0,3,3,0,no
4,1,0,0,0,0,1,1,4,0,4,4,0,no
7,0,1,1,2,1,1,1,7,0,7,7,0,no
7,0,1,1,2,1,1,1,7,0,7,7,0,no
16,0,2,1,7,3,1,1,16,0,16,16,0,no
8,0,0,0,2,0,1,1,8,0,8,8,0,no
6,0,0,0,1,0,1,1,6,0,6,6,0,no
6,0,0,0,1,0,1,1,6,0,6,6,0,no
3,0,0,0,1,0,1,1,3,0,3,3,0,no
3,0,0,0,0,0,1,1,3,0,3,3,0,no
3,0,0,0,0,0,1,1,3,0,3,3,0,no
3,0,0,0,2,0,1,1,3,0,3,3,0,no
3,0,0,0,2,0,1,1,3,0,3,3,0,no
3,0,0,0,1,0,1,1,3,0,3,3,0,no
10,0,1,1,1,2,1,1,10,0,10,10,0,no
3,0,0,0,1,0,1,1,3,0,3,3,0,no
3,0,0,0,1,0,1,1,3,0,3,3,0,no
3,0,0,0,1,0,1,1,3,0,3,3,0,no
9,0,2,1,2,0,1,1,9,0,9,9,0,no
4,0,1,1,1,0,1,1,4,0,4,4,0,no
33,2,6,3,1,2,1,1,33,0,33,33,0,no
8,1,1,1,2,0,1,1,8,0,8,8,0,no
12,1,3,1,3,0,1,1,12,0,12,12,0,no
6,1,0,0,0,0,1,1,6,0,6,6,0,no
9,1,1,1,0,0,1,1,9,0,9,9,0,no
5,1,0,0,0,0,1,1,5,0,5,5,0,no
0,0,0,0,0,0,1,1,0,0,0,0,0,no
0,0,0,0,0,0,1,1,0,0,0,0,0,no
0,0,0,0,0,0,1,1,0,0,0,0,0,no
0,0,0,0,0,0,1,1,0,0,0,0,0,no
3,1,0,0,0,0,1,1,3,0,3,3,0,no
2,1,0,0,1,0,1,1,2,0,2,2,0,no
3,0,0,0,0,0,1,1,3,0,3,3,0,no
3,0,0,0,0,0,1,1,3,0,3,3,0,no
3,0,0,0,2,0,1,1,3,0,3,3,0,no
3,0,0,0,0,0,1,1,3,0,3,3,0,no
12,0,2,1,2,1,1,1,12,0,12,12,0,no
3,0,0,0,1,0,1,1,3,0,3,3,0,no
3,0,0,0,0,0,1,1,3,0,3,3,0,no
3,0,0,0,1,0,1,1,3,0,3,3,0,no
11,0,2,1,2,1,1,1,11,0,11,11,0,no
3,0,0,0,0,0,1,1,3,0,3,3,0,no
3,1,0,0,1,0,1,1,3,0,3,3,0,no
3,0,0,0,0,0,1,1,3,0,3,3,0,no
4,1,0,0,2,1,1,1,4,0,4,4,0,no
8,1,1,1,1,1,1,1,8,0,8,8,0,no
8,2,1,1,1,1,1,1,8,0,8,8,0,no
3,1,0,0,1,0,1,1,3,0,3,3,0,no
3,2,0,0,1,0,1,1,3,0,3,3,0,no
3,1,0,0,1,0,1,1,3,0,3,3,0,no
3,2,0,0,1,0,1,1,3,0,3,3,0,no
3,1,0,0,1,0,1,1,3,0,3,3,0,no
3,2,0,0,1,0,1,1,3,0,3,3,0,no
3,1,0,0,1,0,1,1,3,0,3,3,0,no
3,2,0,0,1,0,1,1,3,0,3,3,0,no
3,0,0,0,0,0,1,1,3,0,3,3,0,no
3,0,0,0,2,0,1,1,3,0,3,3,0,no
7,1,1,1,1,0,1,1,7,0,7,7,0,no
3,0,0,0,0,0,1,1,3,0,3,3,0,no
4,1,0,0,0,0,1,1,4,0,4,4,0,no
7,0,1,1,2,1,1,1,7,0,7,7,0,no
7,0,1,1,2,1,1,1,7,0,7,7,0,no
12,0,1,1,6,3,1,1,12,0,12,12,0,no
6,0,0,0,1,0,1,1,6,0,6,6,0,no
6,0,0,0,1,0,1,1,6,0,6,6,0,no
3,0,0,0,1,0,1,1,3,0,3,3,0,no
3,0,0,0,0,0,1,1,3,0,3,3,0,no
3,0,0,0,2,0,1,1,3,0,3,3,0,no
3,0,0,0,2,0,1,1,3,0,3,3,0,no
3,0,0,0,1,0,1,1,3,0,3,3,0,no
3,0,0,0,0,0,1,1,3,0,3,3,0,no
3,0,0,0,1,0,1,1,3,0,3,3,0,no
3,0,0,0,1,0,1,1,3,0,3,3,0,no
6,0,1,1,2,0,1,1,6,0,6,6,0,no
4,0,1,1,1,0,1,1,4,0,4,4,0,no
27,2,5,3,1,2,1,1,27,0,27,27,0,no
8,1,1,1,2,0,1,1,8,0,8,8,0,no
9,1,2,1,3,0,1,1,9,0,9,9,0,no
6,1,0,0,0,0,1,1,6,0,6,6,0,no
0,0,0,0,0,0,1,1,0,0,0,0,0,no
0,0,0,0,0,0,1,1,0,0,0,0,0,no
3,1,0,0,0,0,1,1,3,0,3,3,1,no
2,1,0,0,1,0,1,1,2,0,2,2,1,no
3,0,0,0,0,0,1,1,3,0,3,3,1,no
3,0,0,0,0,0,1,1,3,0,3,3,1,no
3,0,0,0,2,0,1,1,3,0,3,3,1,no
3,0,0,0,1,0,1,1,3,0,3,3,1,no
3,0,0,0,1,0,1,1,3,0,3,3,1,no
3,0,0,0,0,0,1,1,3,0,3,3,1,no
18,0,4,1,4,1,3,1,19,1,15,6.666667,1,no
3,0,0,0,0,0,1,1,3,0,3,3,1,no
3,0,0,0,1,0,2,1,4,1,3,2.5,1,no
3,0,0,0,1,0,2,1,4,1,3,2.5,1,no
3,0,0,0,1,0,1,1,3,0,3,3,1,no
5,0,0,0,1,0,3,1,5,0,3,1.666667,1,no
3,0,0,0,1,0,1,1,3,0,3,3,1,no
17,0,4,2,2,1,2,1,17,0,9,8.5,1,no
3,0,0,0,0,0,1,1,3,0,3,3,1,no
3,1,0,0,1,0,1,1,3,0,3,3,1,no
3,0,0,0,0,0,1,1,3,0,3,3,1,no
4,1,0,0,2,1,1,1,4,0,4,4,1,no
8,1,1,1,1,1,1,1,8,0,8,8,1,no
8,2,1,1,1,1,1,1,8,0,8,8,1,no
3,1,0,0,1,0,1,1,3,0,3,3,1,no
3,2,0,0,1,0,1,1,3,0,3,3,1,no
3,1,0,0,1,0,1,1,3,0,3,3,1,no
3,2,0,0,1,0,1,1,3,0,3,3,1,no
3,1,0,0,1,0,1,1,3,0,3,3,1,no
3,2,0,0,1,0,1,1,3,0,3,3,1,no
3,1,0,0,1,0,1,1,3,0,3,3,1,no
3,2,0,0,1,0,1,1,3,0,3,3,1,no
3,0,0,0,0,0,1,1,3,0,3,3,1,no
3,0,0,0,2,0,1,1,3,0,3,3,1,no
13,1,3,1,3,0,3,1,14,1,10,5,1,no
3,0,0,0,0,0,2,1,3,0,2,1.5,1,no
4,1,0,0,0,0,1,1,4,0,4,4,1,no
7,0,1,1,2,1,2,1,7,0,6,3.5,1,no
7,0,1,1,2,1,2,1,7,0,6,3.5,1,no
24,0,4,1,8,3,3,1,24,0,12,8,1,no
14,0,1,1,4,0,3,1,14,0,7,4.666667,1,no
10,0,1,1,2,0,2,1,10,0,5,5,1,no
6,0,0,0,1,0,2,1,6,0,5,3,1,no
6,0,0,0,1,0,1,1,6,0,6,6,1,no
3,0,0,0,1,0,2,1,4,1,3,2.5,1,no
3,0,0,0,0,0,2,1,5,2,5,3.5,1,no
3,0,0,0,2,0,1,1,3,0,3,3,1,no
3,0,0,0,2,0,1,1,3,0,3,3,1,no
3,0,0,0,1,0,1,1,3,0,3,3,1,no
7,0,1,1,1,0,2,1,7,0,4,3.5,1,no
5,0,0,0,1,0,1,1,5,0,5,5,1,no
7,0,1,1,6,0,1,1,7,0,7,7,1,no
7,0,1,1,1,0,1,1,7,0,7,7,1,no
3,0,0,0,0,0,2,1,4,1,3,2.5,1,no
3,0,0,0,0,0,1,1,3,0,3,3,1,no
3,0,0,0,1,0,2,1,4,1,3,2.5,1,no
3,0,0,0,1,0,2,1,4,1,3,2.5,1,no
3,0,0,0,1,0,1,1,3,0,3,3,1,no
3,0,0,0,1,0,1,1,3,0,3,3,1,no
11,0,3,2,1,0,2,1,11,0,8,5.5,1,no
5,0,1,1,0,0,1,1,5,0,5,5,1,no
14,1,2,2,4,0,2,1,14,0,9,7,1,no
43,2,8,3,3,3,3,1,43,0,34,14.333333,1,no
8,1,1,1,2,0,1,1,8,0,8,8,1,no
15,1,4,1,3,0,2,1,15,0,12,7.5,1,no
13,1,2,2,1,0,2,1,13,0,8,6.5,1,no
10,1,1,1,1,0,2,1,10,0,5,5,1,no
6,1,0,0,0,0,2,1,6,0,5,3,1,no
6,1,0,0,0,0,1,1,6,0,6,6,1,no
0,0,0,0,1,0,1,1,0,0,0,0,1,no
0,0,0,0,1,0,1,1,0,0,0,0,1,no
0,0,0,0,0,0,1,1,0,0,0,0,1,no
0,0,0,0,0,0,1,1,0,0,0,0,1,no
0,0,0,0,0,0,1,1,0,0,0,0,1,no
0,0,0,0,0,0,1,1,0,0,0,0,1,no
0,0,0,0,0,0,1,1,0,0,0,0,1,no
3,1,0,0,0,0,1,1,3,0,3,3,1,no
2,1,0,0,1,0,1,1,2,0,2,2,1,no
3,0,0,0,0,0,1,1,3,0,3,3,1,no
3,0,0,0,0,0,1,1,3,0,3,3,1,no
3,0,0,0,2,0,1,1,3,0,3,3,1,no
3,1,0,0,1,0,1,1,3,0,3,3,1,no
3,0,0,0,0,0,1,1,3,0,3,3,1,no
3,0,0,0,1,0,1,1,3,0,3,3,1,no
3,1,0,0,1,0,1,1,3,0,3,3,1,no
3,0,0,0,1,0,1,1,3,0,3,3,1,no
12,0,2,1,1,2,2,1,13,1,12,7,1,no
3,0,0,0,0,0,2,1,3,0,2,1.5,1,no
3,0,0,0,1,0,1,1,3,0,3,3,1,no
13,0,3,2,2,2,2,1,13,0,7,6.5,1,no
3,0,0,0,0,0,1,1,3,0,3,3,1,no
3,1,0,0,1,0,1,1,3,0,3,3,1,no
3,0,0,0,0,0,1,1,3,0,3,3,1,no
4,1,0,0,2,1,1,1,4,0,4,4,1,no
8,1,1,1,1,1,1,1,8,0,8,8,1,no
8,2,1,1,1,1,1,1,8,0,8,8,1,no
3,1,0,0,1,0,1,1,3,0,3,3,1,no
3,2,0,0,1,0,1,1,3,0,3,3,1,no
3,1,0,0,1,0,1,1,3,0,3,3,1,no
3,2,0,0,1,0,1,1,3,0,3,3,1,no
3,1,0,0,1,0,1,1,3,0,3,3,1,no
3,2,0,0,1,0,1,1,3,0,3,3,1,no
3,1,0,0,1,0,1,1,3,0,3,3,1,no
3,2,0,0,1,0,1,1,3,0,3,3,1,no
3,0,0,0,0,0,1,1,3,0,3,3,1,no
3,0,0,0,2,0,1,1,3,0,3,3,1,no
7,1,1,1,0,1,2,1,8,1,7,4.5,1,no
3,0,0,0,0,0,2,1,3,0,2,1.5,1,no
4,1,0,0,0,0,1,1,4,0,4,4,1,no
10,1,1,1,2,0,2,1,10,0,7,5,1,no
13,2,2,2,1,0,1,1,13,0,13,13,1,no
10,2,1,1,1,0,1,1,10,0,10,10,1,no
13,1,2,2,1,0,2,1,13,0,10,6.5,1,no
10,1,1,1,1,0,2,1,10,0,7,5,1,no
3,0,0,0,2,0,1,1,3,0,3,3,1,no
3,1,0,0,2,0,1,1,3,0,3,3,1,no
7,0,1,1,2,1,2,1,7,0,6,3.5,1,no
7,0,1,1,2,1,2,1,7,0,6,3.5,1,no
15,0,2,2,7,2,2,1,15,0,11,7.5,1,no
10,0,1,1,1,0,2,1,10,0,7,5,1,no
10,0,1,1,1,0,2,1,10,0,6,5,1,no
3,0,0,0,1,0,2,1,4,1,3,2.5,1,no
3,0,0,0,0,0,2,1,5,2,5,3.5,1,no
6,0,1,1,2,0,1,1,6,0,6,6,1,no
3,0,0,0,2,0,1,1,3,0,3,3,1,no
3,0,0,0,2,0,1,1,3,0,3,3,1,no
3,0,0,0,1,0,1,1,3,0,3,3,1,no
7,1,1,1,1,0,2,1,7,0,4,3.5,1,no
3,1,0,0,1,0,1,1,3,0,3,3,1,no
3,0,0,0,1,0,1,1,3,0,3,3,1,no
7,0,1,1,0,0,2,1,7,0,4,3.5,1,no
7,0,1,1,7,0,1,1,7,0,7,7,1,no
7,0,1,1,1,0,2,1,7,0,4,3.5,1,no
7,1,1,1,1,0,1,1,7,0,7,7,1,no
7,0,1,1,1,0,1,1,7,0,7,7,1,no
3,0,0,0,1,0,1,1,3,0,3,3,1,no
8,0,2,2,1,1,2,1,8,0,5,4,1,no
5,0,1,1,0,0,1,1,5,0,5,5,1,no
28,2,5,3,3,3,2,1,28,0,26,14,1,no
8,1,1,1,2,0,1,1,8,0,8,8,1,no
30,1,7,3,5,0,2,1,30,0,18,15,1,no
10,1,1,1,0,0,1,1,10,0,10,10,1,no
13,2,2,2,1,0,2,1,13,0,7,6.5,1,no
10,2,1,1,1,0,2,1,10,0,6,5,1,no
0,1,0,0,1,0,1,1,0,0,0,0,1,no
0,0,0,0,0,0,1,1,0,0,0,0,1,no
0,0,0,0,1,0,1,1,0,0,0,0,1,no
0,1,0,0,1,0,1,1,0,0,0,0,1,no
0,0,0,0,1,0,1,1,0,0,0,0,1,no
3,1,0,0,0,0,1,1,3,0,3,3,0,no
2,1,0,0,1,0,1,1,2,0,2,2,0,no
3,0,0,0,0,0,1,1,3,0,3,3,0,no
3,0,0,0,0,0,1,1,3,0,3,3,0,no
3,0,0,0,2,0,1,1,3,0,3,3,0,no
13,0,2,2,1,3,1,1,13,0,13,13,0,no
10,0,1,1,1,2,1,1,10,0,10,10,0,no
3,0,0,0,0,0,1,1,3,0,3,3,0,no
15,0,3,1,3,1,1,1,15,0,15,15,0,no
3,0,0,0,1,0,1,1,3,0,3,3,0,no
3,0,0,0,1,0,1,1,3,0,3,3,0,no
4,0,0,0,0,0,1,1,4,0,4,4,0,no
3,0,0,0,1,0,1,1,3,0,3,3,0,no
15,0,3,1,2,1,1,1,15,0,15,15,0,no
3,0,0,0,0,0,1,1,3,0,3,3,0,no
3,1,0,0,1,0,1,1,3,0,3,3,0,no
3,0,0,0,0,0,1,1,3,0,3,3,0,no
4,1,0,0,2,1,1,1,4,0,4,4,0,no
8,1,1,1,1,1,1,1,8,0,8,8,0,no
8,2,1,1,1,1,1,1,8,0,8,8,0,no
3,1,0,0,1,0,1,1,3,0,3,3,0,no
3,2,0,0,1,0,1,1,3,0,3,3,0,no
3,1,0,0,1,0,1,1,3,0,3,3,0,no
3,2,0,0,1,0,1,1,3,0,3,3,0,no
3,1,0,0,1,0,1,1,3,0,3,3,0,no
3,2,0,0,1,0,1,1,3,0,3,3,0,no
3,1,0,0,1,0,1,1,3,0,3,3,0,no
3,2,0,0,1,0,1,1,3,0,3,3,0,no
3,0,0,0,0,0,1,1,3,0,3,3,0,no
3,0,0,0,2,0,1,1,3,0,3,3,0,no
10,1,2,1,2,0,1,1,10,0,10,10,0,no
3,0,0,0,0,0,1,1,3,0,3,3,0,no
4,1,0,0,0,0,1,1,4,0,4,4,0,no
7,0,1,1,2,1,1,1,7,0,7,7,0,no
7,0,1,1,2,1,1,1,7,0,7,7,0,no
16,0,2,1,7,3,1,1,16,0,16,16,0,no
8,0,0,0,2,0,1,1,8,0,8,8,0,no
6,0,0,0,1,0,1,1,6,0,6,6,0,no
6,0,0,0,1,0,1,1,6,0,6,6,0,no
3,0,0,0,1,0,1,1,3,0,3,3,0,no
3,0,0,0,0,0,1,1,3,0,3,3,0,no
3,0,0,0,2,0,1,1,3,0,3,3,0,no
3,0,0,0,2,0,1,1,3,0,3,3,0,no
3,0,0,0,1,0,1,1,3,0,3,3,0,no
10,0,1,1,1,2,1,1,10,0,10,10,0,no
3,0,0,0,0,0,1,1,3,0,3,3,0,no
3,0,0,0,1,0,1,1,3,0,3,3,0,no
3,0,0,0,1,0,1,1,3,0,3,3,0,no
3,0,0,0,1,0,1,1,3,0,3,3,0,no
9,0,2,1,2,0,1,1,9,0,9,9,0,no
4,0,1,1,1,0,1,1,4,0,4,4,0,no
33,2,6,3,1,2,1,1,33,0,33,33,0,no
8,1,1,1,2,0,1,1,8,0,8,8,0,no
12,1,3,1,3,0,1,1,12,0,12,12,0,no
9,1,1,1,0,0,1,1,9,0,9,9,0,no
5,1,0,0,0,0,1,1,5,0,5,5,0,no
6,1,0,0,0,0,1,1,6,0,6,6,0,no
0,0,0,0,0,0,1,1,0,0,0,0,0,no
0,0,0,0,0,0,1,1,0,0,0,0,0,no
0,0,0,0,0,0,1,1,0,0,0,0,0,no
0,0,0,0,0,0,1,1,0,0,0,0,0,no
3,1,0,0,0,0,1,1,3,0,3,3,0,no
2,1,0,0,1,0,1,1,2,0,2,2,0,no
3,0,0,0,0,0,1,1,3,0,3,3,0,no
3,0,0,0,0,0,1,1,3,0,3,3,0,no
3,0,0,0,2,0,1,1,3,0,3,3,0,no
3,1,0,0,1,0,1,1,3,0,3,3,0,no
3,0,0,0,0,0,1,1,3,0,3,3,0,no
3,0,0,0,1,0,1,1,3,0,3,3,0,no
3,1,0,0,1,0,1,1,3,0,3,3,0,no
3,0,0,0,1,0,1,1,3,0,3,3,0,no
12,0,2,1,1,2,1,1,12,0,12,12,0,no
3,0,0,0,0,0,1,1,3,0,3,3,0,no
3,0,0,0,1,0,1,1,3,0,3,3,0,no
7,0,1,1,2,1,1,1,7,0,7,7,0,no
3,0,0,0,0,0,1,1,3,0,3,3,0,no
3,1,0,0,1,0,1,1,3,0,3,3,0,no
3,0,0,0,0,0,1,1,3,0,3,3,0,no
4,1,0,0,2,1,1,1,4,0,4,4,0,no
8,1,1,1,1,1,1,1,8,0,8,8,0,no
8,2,1,1,1,1,1,1,8,0,8,8,0,no
3,1,0,0,1,0,1,1,3,0,3,3,0,no
3,2,0,0,1,0,1,1,3,0,3,3,0,no
3,1,0,0,1,0,1,1,3,0,3,3,0,no
3,2,0,0,1,0,1,1,3,0,3,3,0,no
3,1,0,0,1,0,1,1,3,0,3,3,0,no
3,2,0,0,1,0,1,1,3,0,3,3,0,no
3,1,0,0,1,0,1,1,3,0,3,3,0,no
3,2,0,0,1,0,1,1,3,0,3,3,0,no
3,0,0,0,0,0,1,1,3,0,3,3,0,no
3,0,0,0,2,0,1,1,3,0,3,3,0,no
7,1,1,1,0,1,1,1,7,0,7,7,0,no
3,0,0,0,0,0,1,1,3,0,3,3,0,no
4,1,0,0,0,0,1,1,4,0,4,4,0,no
10,1,1,1,2,0,1,1,10,0,10,10,0,no
13,2,2,2,1,0,1,1,13,0,13,13,0,no
10,2,1,1,1,0,1,1,10,0,10,10,0,no
13,1,2,2,1,0,1,1,13,0,13,13,0,no
10,1,1,1,1,0,1,1,10,0,10,10,0,no
3,0,0,0,2,0,1,1,3,0,3,3,0,no
3,1,0,0,2,0,1,1,3,0,3,3,0,no
7,0,1,1,2,1,1,1,7,0,7,7,0,no
7,0,1,1,2,1,1,1,7,0,7,7,0,no
15,0,2,2,7,2,1,1,15,0,15,15,0,no
10,0,1,1,1,0,1,1,10,0,10,10,0,no
10,0,1,1,1,0,1,1,10,0,10,10,0,no
3,0,0,0,1,0,1,1,3,0,3,3,0,no
3,0,0,0,0,0,1,1,3,0,3,3,0,no
6,0,1,1,2,0,1,1,6,0,6,6,0,no
3,0,0,0,2,0,1,1,3,0,3,3,0,no
3,0,0,0,2,0,1,1,3,0,3,3,0,no
3,0,0,0,1,0,1,1,3,0,3,3,0,no
7,1,1,1,1,0,1,1,7,0,7,7,0,no
3,1,0,0,1,0,1,1,3,0,3,3,0,no
3,0,0,0,1,0,1,1,3,0,3,3,0,no
7,0,1,1,0,0,1,1,7,0,7,7,0,no
7,0,1,1,7,0,1,1,7,0,7,7,0,no
7,0,1,1,1,0,1,1,7,0,7,7,0,no
7,1,1,1,1,0,1,1,7,0,7,7,0,no
7,0,1,1,1,0,1,1,7,0,7,7,0,no
3,0,0,0,1,0,1,1,3,0,3,3,0,no
3,0,0,0,1,0,1,1,3,0,3,3,0,no
5,0,1,1,0,0,1,1,5,0,5,5,0,no
28,2,5,3,3,3,1,1,28,0,28,28,0,no
8,1,1,1,2,0,1,1,8,0,8,8,0,no
30,1,7,3,5,0,1,1,30,0,30,30,0,no
10,1,1,1,0,0,1,1,10,0,10,10,0,no
13,2,2,2,1,0,1,1,13,0,13,13,0,no
10,2,1,1,1,0,1,1,10,0,10,10,0,no
3,1,0,0,0,0,1,1,3,0,3,3,0,no
2,1,0,0,1,0,1,1,2,0,2,2,0,no
3,0,0,0,0,0,1,1,3,0,3,3,0,no
3,0,0,0,0,0,1,1,3,0,3,3,0,no
3,0,0,0,2,0,1,1,3,0,3,3,0,no
13,0,2,2,1,3,1,1,13,0,13,13,0,no
10,0,1,1,1,2,1,1,10,0,10,10,0,no
15,0,3,1,3,1,1,1,15,0,15,15,0,no
3,0,0,0,0,0,1,1,3,0,3,3,0,no
3,0,0,0,1,0,1,1,3,0,3,3,0,no
3,0,0,0,1,0,1,1,3,0,3,3,0,no
4,0,0,0,0,0,1,1,4,0,4,4,0,no
3,0,0,0,1,0,1,1,3,0,3,3,0,no
7,0,1,1,2,1,1,1,7,0,7,7,0,no
3,0,0,0,0,0,1,1,3,0,3,3,0,no
3,1,0,0,1,0,1,1,3,0,3,3,0,no
3,0,0,0,0,0,1,1,3,0,3,3,0,no
4,1,0,0,2,1,1,1,4,0,4,4,0,no
8,1,1,1,1,1,1,1,8,0,8,8,0,no
8,2,1,1,1,1,1,1,8,0,8,8,0,no
3,1,0,0,1,0,1,1,3,0,3,3,0,no
3,2,0,0,1,0,1,1,3,0,3,3,0,no
3,1,0,0,1,0,1,1,3,0,3,3,0,no
3,2,0,0,1,0,1,1,3,0,3,3,0,no
3,1,0,0,1,0,1,1,3,0,3,3,0,no
3,2,0,0,1,0,1,1,3,0,3,3,0,no
3,1,0,0,1,0,1,1,3,0,3,3,0,no
3,2,0,0,1,0,1,1,3,0,3,3,0,no
3,0,0,0,0,0,1,1,3,0,3,3,0,no
3,0,0,0,2,0,1,1,3,0,3,3,0,no
10,1,2,1,2,0,1,1,10,0,10,10,0,no
3,0,0,0,0,0,1,1,3,0,3,3,0,no
4,1,0,0,0,0,1,1,4,0,4,4,0,no
7,0,1,1,2,1,1,1,7,0,7,7,0,no
7,0,1,1,2,1,1,1,7,0,7,7,0,no
16,0,2,1,7,3,1,1,16,0,16,16,0,no
8,0,0,0,2,0,1,1,8,0,8,8,0,no
6,0,0,0,1,0,1,1,6,0,6,6,0,no
6,0,0,0,1,0,1,1,6,0,6,6,0,no
3,0,0,0,1,0,1,1,3,0,3,3,0,no
3,0,0,0,0,0,1,1,3,0,3,3,0,no
3,0,0,0,2,0,1,1,3,0,3,3,0,no
3,0,0,0,2,0,1,1,3,0,3,3,0,no
3,0,0,0,1,0,1,1,3,0,3,3,0,no
10,0,1,1,1,2,1,1,10,0,10,10,0,no
3,0,0,0,0,0,1,1,3,0,3,3,0,no
3,0,0,0,1,0,1,1,3,0,3,3,0,no
3,0,0,0,1,0,1,1,3,0,3,3,0,no
3,0,0,0,1,0,1,1,3,0,3,3,0,no
3,0,0,0,1,0,1,1,3,0,3,3,0,no
4,0,1,1,1,0,1,1,4,0,4,4,0,no
33,2,6,3,1,2,1,1,33,0,33,33,0,no
8,1,1,1,2,0,1,1,8,0,8,8,0,no
12,1,3,1,3,0,1,1,12,0,12,12,0,no
9,1,1,1,0,0,1,1,9,0,9,9,0,no
5,1,0,0,0,0,1,1,5,0,5,5,0,no
9,1,1,1,0,0,1,1,9,0,9,9,0,no
0,0,0,0,0,0,1,1,0,0,0,0,0,no
0,0,0,0,0,0,1,1,0,0,0,0,0,no
0,0,0,0,0,0,1,1,0,0,0,0,0,no
0,0,0,0,0,0,1,1,0,0,0,0,0,no
0,1,0,0,1,0,1,1,0,0,0,0,0,no
0,0,0,0,0,0,1,1,0,0,0,0,0,no
0,0,0,0,1,0,1,1,0,0,0,0,0,no
0,1,0,0,1,0,1,1,0,0,0,0,0,no
0,0,0,0,1,0,1,1,0,0,0,0,0,no
3,1,0,0,0,0,1,1,3,0,3,3,1,no
2,1,0,0,1,0,1,1,2,0,2,2,1,no
3,0,0,0,0,0,1,1,3,0,3,3,1,no
3,0,0,0,0,0,1,1,3,0,3,3,1,no
3,0,0,0,0,0,1,1,3,0,3,3,1,no
3,0,0,0,2,0,1,1,3,0,3,3,1,no
3,0,0,0,1,0,1,1,3,0,3,3,0,no
3,0,0,0,1,0,1,1,3,0,3,3,0,no
3,0,0,0,1,0,1,1,3,0,3,3,1,no
3,0,0,0,1,0,1,1,3,0,3,3,1,no
21,0,5,1,5,1,3,1,22,1,18,7.666667,1,no
3,0,0,0,0,0,1,1,3,0,3,3,1,no
3,0,0,0,1,0,2,1,4,1,3,2.5,1,no
3,0,0,0,1,0,1,1,3,0,3,3,0,no
3,0,0,0,1,0,2,1,4,1,3,2.5,1,no
3,0,0,0,1,0,2,1,4,1,3,2.5,1,no
6,0,0,0,2,0,3,1,6,0,3,2,1,no
3,0,0,0,1,0,1,1,3,0,3,3,1,no
17,0,4,2,2,1,2,1,17,0,9,8.5,1,no
3,0,0,0,0,0,1,1,3,0,3,3,1,no
3,1,0,0,1,0,1,1,3,0,3,3,1,no
3,0,0,0,0,0,1,1,3,0,3,3,1,no
4,1,0,0,2,1,1,1,4,0,4,4,1,no
8,1,1,1,1,1,1,1,8,0,8,8,1,no
8,2,1,1,1,1,1,1,8,0,8,8,1,no
3,1,0,0,1,0,1,1,3,0,3,3,1,no
3,2,0,0,1,0,1,1,3,0,3,3,1,no
3,1,0,0,1,0,1,1,3,0,3,3,1,no
3,2,0,0,1,0,1,1,3,0,3,3,1,no
3,1,0,0,1,0,1,1,3,0,3,3,1,no
3,2,0,0,1,0,1,1,3,0,3,3,1,no
3,1,0,0,1,0,1,1,3,0,3,3,1,no
3,2,0,0,1,0,1,1,3,0,3,3,1,no
3,0,0,0,0,0,1,1,3,0,3,3,1,no
3,0,0,0,2,0,1,1,3,0,3,3,1,no
16,1,4,1,4,0,3,1,17,1,13,6,1,no
3,0,0,0,0,0,2,1,3,0,2,1.5,1,no
4,1,0,0,0,0,1,1,4,0,4,4,1,no
7,0,1,1,2,1,2,1,7,0,6,3.5,1,no
7,0,1,1,2,1,2,1,7,0,6,3.5,1,no
32,0,6,1,9,3,3,1,32,0,16,10.666667,1,no
20,0,2,1,6,0,3,1,20,0,7,6.666667,1,no
6,0,0,0,1,0,2,1,6,0,5,3,1,no
10,0,1,1,2,0,1,1,10,0,10,10,0,no
10,0,1,1,2,0,2,1,10,0,5,5,1,no
6,0,0,0,1,0,2,1,6,0,5,3,1,no
3,0,0,0,1,0,2,1,4,1,3,2.5,1,no
3,0,0,0,0,0,2,1,5,2,5,3.5,1,no
3,0,0,0,0,0,2,1,4,1,3,2.5,1,no
3,0,0,0,2,0,1,1,3,0,3,3,1,no
3,0,0,0,2,0,1,1,3,0,3,3,1,no
3,0,0,0,1,0,1,1,3,0,3,3,1,no
7,0,1,1,1,0,1,1,7,0,7,7,0,no
5,0,0,0,1,0,1,1,5,0,5,5,0,no
7,0,1,1,6,0,1,1,7,0,7,7,0,no
7,0,1,1,1,0,1,1,7,0,7,7,0,no
7,0,1,1,1,0,2,1,7,0,4,3.5,1,no
5,0,0,0,1,0,1,1,5,0,5,5,1,no
7,0,1,1,6,0,1,1,7,0,7,7,1,no
7,0,1,1,1,0,1,1,7,0,7,7,1,no
3,0,0,0,0,0,2,1,4,1,3,2.5,1,no
3,0,0,0,1,0,2,1,4,1,3,2.5,1,no
3,0,0,0,1,0,1,1,3,0,3,3,0,no
3,0,0,0,1,0,2,1,4,1,3,2.5,1,no
3,0,0,0,1,0,2,1,4,1,3,2.5,1,no
3,0,0,0,1,0,1,1,3,0,3,3,1,no
11,0,3,2,1,0,2,1,11,0,8,5.5,1,no
6,0,1,1,0,0,2,1,6,0,5,3,1,no
53,2,10,3,5,4,3,1,53,0,39,17.666667,1,no
8,1,1,1,2,0,1,1,8,0,8,8,1,no
18,1,5,1,3,0,2,1,18,0,15,9,1,no
14,1,2,2,4,0,1,1,14,0,14,14,0,no
14,1,2,2,4,0,2,1,14,0,9,7,1,no
9,1,1,1,0,0,2,1,9,0,8,4.5,1,no
13,1,2,2,1,0,1,1,13,0,13,13,0,no
10,1,1,1,1,0,1,1,10,0,10,10,0,no
13,1,2,2,1,0,2,1,13,0,8,6.5,1,no
10,1,1,1,1,0,2,1,10,0,5,5,1,no
9,1,1,1,0,0,2,1,9,0,8,4.5,1,no
3,1,0,0,0,0,1,1,3,0,3,3,0,no
2,1,0,0,1,0,1,1,2,0,2,2,0,no
3,0,0,0,0,0,1,1,3,0,3,3,0,no
3,0,0,0,0,0,1,1,3,0,3,3,0,no
3,0,0,0,2,0,1,1,3,0,3,3,0,no
13,0,2,2,1,3,1,1,13,0,13,13,0,no
10,0,1,1,1,2,1,1,10,0,10,10,0,no
3,0,0,0,1,0,1,1,3,0,3,3,0,no
3,0,0,0,1,0,1,1,3,0,3,3,0,no
15,0,3,1,3,1,1,1,15,0,15,15,0,no
3,0,0,0,1,0,1,1,3,0,3,3,0,no
3,0,0,0,1,0,1,1,3,0,3,3,0,no
4,0,0,0,1,0,1,1,4,0,4,4,0,no
3,0,0,0,1,0,1,1,3,0,3,3,0,no
7,0,1,1,2,1,1,1,7,0,7,7,0,no
3,0,0,0,0,0,1,1,3,0,3,3,0,no
3,1,0,0,1,0,1,1,3,0,3,3,0,no
3,0,0,0,0,0,1,1,3,0,3,3,0,no
4,1,0,0,2,1,1,1,4,0,4,4,0,no
8,1,1,1,1,1,1,1,8,0,8,8,0,no
8,2,1,1,1,1,1,1,8,0,8,8,0,no
3,1,0,0,1,0,1,1,3,0,3,3,0,no
3,2,0,0,1,0,1,1,3,0,3,3,0,no
3,1,0,0,1,0,1,1,3,0,3,3,0,no
3,2,0,0,1,0,1,1,3,0,3,3,0,no
3,1,0,0,1,0,1,1,3,0,3,3,0,no
3,2,0,0,1,0,1,1,3,0,3,3,0,no
3,1,0,0,1,0,1,1,3,0,3,3,0,no
3,2,0,0,1,0,1,1,3,0,3,3,0,no
3,0,0,0,0,0,1,1,3,0,3,3,0,no
3,0,0,0,2,0,1,1,3,0,3,3,0,no
10,1,2,1,2,0,1,1,10,0,10,10,0,no
3,0,0,0,0,0,1,1,3,0,3,3,0,no
4,1,0,0,0,0,1,1,4,0,4,4,0,no
7,0,1,1,2,1,1,1,7,0,7,7,0,no
7,0,1,1,2,1,1,1,7,0,7,7,0,no
20,0,3,1,7,3,1,1,20,0,20,20,0,no
12,0,1,1,3,0,1,1,12,0,12,12,0,no
6,0,0,0,1,0,1,1,6,0,6,6,0,no
10,0,1,1,2,0,1,1,10,0,10,10,0,no
3,0,0,0,1,0,1,1,3,0,3,3,0,no
3,0,0,0,0,0,1,1,3,0,3,3,0,no
3,0,0,0,2,0,1,1,3,0,3,3,0,no
3,0,0,0,2,0,1,1,3,0,3,3,0,no
3,0,0,0,1,0,1,1,3,0,3,3,0,no
10,0,1,1,1,2,1,1,10,0,10,10,0,no
7,0,1,1,1,0,1,1,7,0,7,7,0,no
5,0,0,0,1,0,1,1,5,0,5,5,0,no
7,0,1,1,6,0,1,1,7,0,7,7,0,no
7,0,1,1,1,0,1,1,7,0,7,7,0,no
3,0,0,0,1,0,1,1,3,0,3,3,0,no
3,0,0,0,1,0,1,1,3,0,3,3,0,no
3,0,0,0,1,0,1,1,3,0,3,3,0,no
3,0,0,0,1,0,1,1,3,0,3,3,0,no
5,0,1,1,0,0,1,1,5,0,5,5,0,no
37,2,7,3,3,3,1,1,37,0,37,37,0,no
8,1,1,1,2,0,1,1,8,0,8,8,0,no
12,1,3,1,3,0,1,1,12,0,12,12,0,no
14,1,2,2,4,0,1,1,14,0,14,14,0,no
9,1,1,1,0,0,1,1,9,0,9,9,0,no
5,1,0,0,0,0,1,1,5,0,5,5,0,no
13,1,2,2,1,0,1,1,13,0,13,13,0,no
10,1,1,1,1,0,1,1,10,0,10,10,0,no
0,0,0,0,0,0,1,1,0,0,0,0,0,no
0,0,0,0,1,0,1,1,0,0,0,0,0,no
0,0,0,0,1,0,1,1,0,0,0,0,0,no
0,0,0,0,0,0,1,1,0,0,0,0,0,no
0,0,0,0,0,0,1,1,0,0,0,0,0,no
0,0,0,0,0,0,1,1,0,0,0,0,1,no
0,0,0,0,1,0,1,1,0,0,0,0,0,no
0,0,0,0,1,0,1,1,0,0,0,0,0,no
0,0,0,0,1,0,1,1,0,0,0,0,1,no
0,0,0,0,1,0,1,1,0,0,0,0,1,no
0,0,0,0,0,0,1,1,0,0,0,0,1,no
0,0,0,0,0,0,1,1,0,0,0,0,1,no
0,0,0,0,0,0,1,1,0,0,0,0,0,no
0,0,0,0,0,0,1,1,0,0,0,0,1,no
0,0,0,0,0,0,1,1,0,0,0,0,1,no
3,1,0,0,0,0,1,1,3,0,3,3,1,no
2,1,0,0,1,0,1,1,2,0,2,2,1,no
3,0,0,0,0,0,1,1,3,0,3,3,1,no
3,0,0,0,0,0,1,1,3,0,3,3,1,no
3,0,0,0,2,0,1,1,3,0,3,3,1,no
3,0,0,0,0,0,1,1,3,0,3,3,1,no
3,1,0,0,1,0,1,1,3,0,3,3,1,no
3,0,0,0,0,0,1,1,3,0,3,3,1,no
3,0,0,0,1,0,1,1,3,0,3,3,1,no
3,1,0,0,1,0,1,1,3,0,3,3,1,no
3,0,0,0,1,0,1,1,3,0,3,3,1,no
15,0,3,1,2,2,2,1,16,1,15,8.5,1,no
3,0,0,0,1,0,2,1,4,1,3,2.5,1,no
4,0,0,0,0,0,2,1,4,0,2,2,1,no
3,0,0,0,1,0,1,1,3,0,3,3,1,no
13,0,3,2,2,2,2,1,13,0,7,6.5,1,no
3,0,0,0,0,0,1,1,3,0,3,3,1,no
3,1,0,0,1,0,1,1,3,0,3,3,1,no
3,0,0,0,0,0,1,1,3,0,3,3,1,no
4,1,0,0,2,1,1,1,4,0,4,4,1,no
8,1,1,1,1,1,1,1,8,0,8,8,1,no
8,2,1,1,1,1,1,1,8,0,8,8,1,no
3,1,0,0,1,0,1,1,3,0,3,3,1,no
3,2,0,0,1,0,1,1,3,0,3,3,1,no
3,1,0,0,1,0,1,1,3,0,3,3,1,no
3,2,0,0,1,0,1,1,3,0,3,3,1,no
3,1,0,0,1,0,1,1,3,0,3,3,1,no
3,2,0,0,1,0,1,1,3,0,3,3,1,no
3,1,0,0,1,0,1,1,3,0,3,3,1,no
3,2,0,0,1,0,1,1,3,0,3,3,1,no
3,0,0,0,0,0,1,1,3,0,3,3,1,no
3,0,0,0,2,0,1,1,3,0,3,3,1,no
10,1,2,1,1,1,2,1,11,1,10,6,1,no
3,0,0,0,0,0,2,1,3,0,2,1.5,1,no
4,1,0,0,0,0,1,1,4,0,4,4,1,no
10,1,1,1,2,0,2,1,10,0,7,5,1,no
13,2,2,2,1,0,1,1,13,0,13,13,1,no
10,2,1,1,1,0,1,1,10,0,10,10,1,no
13,1,2,2,1,0,2,1,13,0,10,6.5,1,no
10,1,1,1,1,0,2,1,10,0,7,5,1,no
3,0,0,0,2,0,1,1,3,0,3,3,1,no
3,1,0,0,2,0,1,1,3,0,3,3,1,no
7,0,1,1,2,1,2,1,7,0,6,3.5,1,no
7,0,1,1,2,1,2,1,7,0,6,3.5,1,no
21,0,3,2,8,3,2,1,21,0,11,10.5,1,no
12,0,1,1,2,0,2,1,12,0,7,6,1,no
6,0,0,0,1,0,2,1,6,0,5,3,1,no
10,0,1,1,1,0,2,1,10,0,6,5,1,no
3,0,0,0,1,0,2,1,4,1,3,2.5,1,no
3,0,0,0,0,0,2,1,5,2,5,3.5,1,no
6,0,1,1,2,0,1,1,6,0,6,6,1,no
3,0,0,0,2,0,1,1,3,0,3,3,1,no
3,0,0,0,2,0,1,1,3,0,3,3,1,no
3,0,0,0,1,0,1,1,3,0,3,3,1,no
3,0,0,0,0,0,2,1,4,1,3,2.5,1,no
7,1,1,1,1,0,2,1,7,0,4,3.5,1,no
3,1,0,0,1,0,1,1,3,0,3,3,1,no
3,0,0,0,1,0,1,1,3,0,3,3,1,no
7,0,1,1,0,0,2,1,7,0,4,3.5,1,no
7,0,1,1,7,0,1,1,7,0,7,7,1,no
7,0,1,1,1,0,2,1,7,0,4,3.5,1,no
7,1,1,1,1,0,1,1,7,0,7,7,1,no
7,0,1,1,1,0,1,1,7,0,7,7,1,no
3,0,0,0,1,0,2,1,4,1,3,2.5,1,no
3,0,0,0,1,0,1,1,3,0,3,3,1,no
8,0,2,2,1,1,2,1,8,0,5,4,1,no
5,0,1,1,0,0,1,1,5,0,5,5,1,no
34,2,6,3,3,3,2,1,34,0,31,17,1,no
8,1,1,1,2,0,1,1,8,0,8,8,1,no
33,1,8,3,5,0,2,1,33,0,18,16.5,1,no
10,1,1,1,0,0,1,1,10,0,10,10,1,no
6,1,0,0,0,0,2,1,6,0,5,3,1,no
13,2,2,2,1,0,2,1,13,0,7,6.5,1,no
10,2,1,1,1,0,2,1,10,0,6,5,1,no
0,0,0,0,0,0,1,1,0,0,0,0,1,no
0,1,0,0,1,0,1,1,0,0,0,0,1,no
0,0,0,0,0,0,1,1,0,0,0,0,1,no
0,0,0,0,1,0,1,1,0,0,0,0,1,no
0,1,0,0,1,0,1,1,0,0,0,0,1,no
0,0,0,0,1,0,1,1,0,0,0,0,1,no
0,0,0,0,0,0,1,1,0,0,0,0,1,no
4,2,0,0,1,0,1,1,4,0,4,4,1,no
3,0,0,0,1,0,1,1,3,0,3,3,1,no
3,0,0,0,0,0,1,1,3,0,3,3,1,no
3,0,0,0,0,0,1,1,3,0,3,3,1,no
3,0,0,0,0,0,1,1,3,0,3,3,1,no
3,0,0,0,0,0,1,1,3,0,3,3,1,no
6,1,1,1,1,0,1,1,6,0,6,6,1,no
20,1,8,1,0,0,2,1,20,0,18,10,1,no
3,1,0,0,0,0,1,1,3,0,3,3,1,no
4,2,0,0,1,0,1,1,4,0,4,4,1,no
3,0,0,0,1,0,1,1,3,0,3,3,1,no
3,0,0,0,0,0,1,1,3,0,3,3,1,no
3,0,0,0,0,0,1,1,3,0,3,3,1,no
3,0,0,0,0,0,1,1,3,0,3,3,1,no
3,0,0,0,0,0,1,1,3,0,3,3,1,no
6,1,1,1,1,0,1,1,6,0,6,6,1,no
8,1,2,1,0,0,1,1,8,0,8,8,1,no
3,1,0,0,0,0,1,1,3,0,3,3,1,no
3,1,0,0,0,0,1,1,3,0,3,3,1,no
2,1,0,0,1,0,1,1,2,0,2,2,1,no
3,0,0,0,1,0,1,1,3,0,3,3,0,no
3,0,0,0,1,0,1,1,3,0,3,3,0,no
3,0,0,0,1,0,1,1,3,0,3,3,1,no
3,0,0,0,1,0,1,1,3,0,3,3,1,no
3,0,0,0,0,0,1,1,3,0,3,3,1,no
3,0,0,0,0,0,1,1,3,0,3,3,1,no
3,0,0,0,2,0,1,1,3,0,3,3,1,no
3,0,0,0,1,0,1,1,3,0,3,3,1,no
3,0,0,0,1,0,1,1,3,0,3,3,1,no
3,0,0,0,1,0,1,1,3,0,3,3,1,no
53,0,14,1,13,3,3,1,54,1,50,18.333333,1,no
3,0,0,0,0,0,1,1,3,0,3,3,1,no
3,0,0,0,1,0,1,1,3,0,3,3,1,no
3,0,0,0,1,0,1,1,3,0,3,3,1,no
3,0,0,0,1,0,1,1,3,0,3,3,1,no
3,0,0,0,1,0,1,1,3,0,3,3,1,no
3,0,0,0,1,0,1,1,3,0,3,3,1,no
3,0,0,0,1,0,1,1,3,0,3,3,1,no
3,0,0,0,0,0,1,1,3,0,3,3,1,no
3,1,0,0,0,0,1,1,3,0,3,3,1,no
3,0,0,0,0,0,1,1,3,0,3,3,1,no
3,0,0,0,0,0,1,1,3,0,3,3,1,no
3,0,0,0,0,0,1,1,3,0,3,3,1,no
3,0,0,0,1,0,1,1,3,0,3,3,1,no
3,0,0,0,1,0,1,1,3,0,3,3,1,no
3,0,0,0,1,0,1,1,3,0,3,3,1,no
3,0,0,0,1,0,1,1,3,0,3,3,0,no
3,0,0,0,1,0,2,1,4,1,3,2.5,1,no
3,0,0,0,1,0,2,1,4,1,3,2.5,1,no
3,0,0,0,1,0,2,1,4,1,3,2.5,1,no
3,0,0,0,1,0,2,1,4,1,3,2.5,1,no
3,0,0,0,1,0,2,1,4,1,3,2.5,1,no
3,0,0,0,1,0,2,1,4,1,3,2.5,1,no
3,0,0,0,1,0,2,1,4,1,3,2.5,1,no
3,0,0,0,1,0,2,1,4,1,3,2.5,1,no
3,0,0,0,1,0,2,1,4,1,3,2.5,1,no
3,0,0,0,1,0,2,1,4,1,3,2.5,1,no
3,0,0,0,1,0,2,1,4,1,3,2.5,1,no
16,0,0,0,10,0,3,1,16,0,10,5.333333,1,no
3,0,0,0,1,0,1,1,3,0,3,3,1,no
65,0,19,2,2,1,3,1,65,0,35,21.666667,1,no
3,0,0,0,0,0,1,1,3,0,3,3,1,no
3,1,0,0,1,0,1,1,3,0,3,3,1,no
3,0,0,0,0,0,1,1,3,0,3,3,1,no
4,1,0,0,2,1,1,1,4,0,4,4,1,no
8,1,1,1,1,1,1,1,8,0,8,8,1,no
8,2,1,1,1,1,1,1,8,0,8,8,1,no
3,1,0,0,1,0,1,1,3,0,3,3,1,no
3,2,0,0,1,0,1,1,3,0,3,3,1,no
3,1,0,0,1,0,1,1,3,0,3,3,1,no
3,2,0,0,1,0,1,1,3,0,3,3,1,no
3,1,0,0,1,0,1,1,3,0,3,3,1,no
3,2,0,0,1,0,1,1,3,0,3,3,1,no
3,1,0,0,1,0,1,1,3,0,3,3,1,no
3,2,0,0,1,0,1,1,3,0,3,3,1,no
3,0,0,0,0,0,1,1,3,0,3,3,1,no
3,0,0,0,2,0,1,1,3,0,3,3,1,no
43,1,13,1,12,1,3,1,44,1,40,15,1,no
3,0,0,0,0,0,2,1,3,0,2,1.5,1,no
4,1,0,0,0,0,1,1,4,0,4,4,1,no
6,1,0,0,1,0,2,1,7,1,7,4,1,no
9,1,1,1,0,0,2,1,10,1,10,5.5,1,no
7,0,1,1,2,1,2,1,7,0,6,3.5,1,no
7,0,1,1,2,1,2,1,7,0,6,3.5,1,no
89,0,20,1,19,3,3,1,89,0,70,29.666667,1,no
59,0,7,1,23,0,3,1,59,0,46,19.666667,1,no
10,0,1,1,2,0,1,1,10,0,10,10,0,no
10,0,1,1,2,0,2,1,10,0,5,5,1,no
6,0,0,0,2,0,2,1,6,0,5,3,1,no
10,0,1,1,2,0,2,1,10,0,5,5,1,no
6,0,0,0,1,0,2,1,6,0,5,3,1,no
10,0,1,1,2,0,2,1,10,0,5,5,1,no
10,0,1,1,2,0,2,1,10,0,5,5,1,no
10,0,1,1,2,0,2,1,10,0,5,5,1,no
6,0,0,0,1,0,2,1,6,0,5,3,1,no
7,0,0,0,2,0,2,1,7,0,4,3.5,1,no
6,0,0,0,1,0,2,1,6,0,5,3,1,no
6,0,0,0,2,0,2,1,6,0,5,3,1,no
10,0,1,1,2,0,2,1,10,0,5,5,1,no
3,0,0,0,1,0,2,1,4,1,3,2.5,1,no
3,0,0,0,0,0,2,1,5,2,5,3.5,1,no
6,0,1,1,1,0,1,1,6,0,6,6,1,no
7,0,1,1,1,0,1,1,7,0,7,7,0,no
5,0,0,0,1,0,1,1,5,0,5,5,0,no
7,0,1,1,6,0,1,1,7,0,7,7,0,no
7,0,1,1,1,0,1,1,7,0,7,7,0,no
7,0,1,1,1,0,2,1,7,0,4,3.5,1,no
5,0,0,0,1,0,1,1,5,0,5,5,1,no
7,0,1,1,6,0,1,1,7,0,7,7,1,no
7,0,1,1,1,0,1,1,7,0,7,7,1,no
3,0,0,0,2,0,1,1,3,0,3,3,1,no
3,0,0,0,2,0,1,1,3,0,3,3,1,no
3,0,0,0,1,0,1,1,3,0,3,3,1,no
3,0,0,0,1,0,2,1,4,1,3,2.5,1,no
7,0,1,1,1,0,2,1,7,0,4,3.5,1,no
5,0,0,0,1,0,1,1,5,0,5,5,1,no
7,0,1,1,6,0,1,1,7,0,7,7,1,no
7,0,1,1,1,0,1,1,7,0,7,7,1,no
3,0,0,0,0,0,2,1,4,1,3,2.5,1,no
7,0,1,1,1,0,2,1,7,0,4,3.5,1,no
5,0,0,0,1,0,1,1,5,0,5,5,1,no
7,0,1,1,6,0,1,1,7,0,7,7,1,no
7,0,1,1,1,0,1,1,7,0,7,7,1,no
7,0,1,1,1,0,2,1,7,0,4,3.5,1,no
5,0,0,0,1,0,1,1,5,0,5,5,1,no
7,0,1,1,6,0,1,1,7,0,7,7,1,no
7,0,1,1,1,0,1,1,7,0,7,7,1,no
7,0,1,1,1,0,2,1,7,0,4,3.5,1,no
5,0,0,0,1,0,1,1,5,0,5,5,1,no
7,0,1,1,6,0,1,1,7,0,7,7,1,no
7,0,1,1,1,0,1,1,7,0,7,7,1,no
3,0,0,0,0,0,2,1,4,1,3,2.5,1,no
3,1,0,0,0,0,2,1,4,1,3,2.5,1,no
3,0,0,0,0,0,2,1,4,1,3,2.5,1,no
3,0,0,0,0,0,2,1,4,1,3,2.5,1,no
3,0,0,0,0,0,2,1,4,1,3,2.5,1,no
3,0,0,0,1,0,2,1,4,1,3,2.5,1,no
7,0,1,1,1,0,2,1,7,0,4,3.5,1,no
5,0,0,0,1,0,1,1,5,0,5,5,1,no
7,0,1,1,6,0,1,1,7,0,7,7,1,no
7,0,1,1,1,0,1,1,7,0,7,7,1,no
3,0,0,0,1,0,1,1,3,0,3,3,0,no
3,0,0,0,1,0,2,1,4,1,3,2.5,1,no
3,0,0,0,1,0,2,1,4,1,3,2.5,1,no
3,0,0,0,1,0,2,1,4,1,3,2.5,1,no
3,0,0,0,1,0,2,1,4,1,3,2.5,1,no
3,0,0,0,1,0,2,1,4,1,3,2.5,1,no
3,0,0,0,1,0,2,1,4,1,3,2.5,1,no
3,0,0,0,1,0,2,1,4,1,3,2.5,1,no
3,0,0,0,1,0,2,1,4,1,3,2.5,1,no
3,0,0,0,1,0,2,1,4,1,3,2.5,1,no
3,0,0,0,1,0,2,1,4,1,3,2.5,1,no
3,0,0,0,1,0,2,1,4,1,3,2.5,1,no
3,0,0,0,1,0,1,1,3,0,3,3,1,no
50,0,18,2,1,0,3,1,50,0,42,16.666667,1,no
11,0,1,1,0,0,2,1,11,0,10,5.5,1,no
14,1,2,2,4,0,1,1,14,0,14,14,0,no
14,1,2,2,4,0,2,1,14,0,9,7,1,no
139,2,26,3,19,13,3,1,139,0,121,46.333333,1,no
8,1,1,1,2,0,1,1,8,0,8,8,1,no
52,1,15,2,4,0,3,1,52,0,45,17.333333,1,no
14,1,2,2,4,0,2,1,14,0,9,7,1,no
14,1,2,2,4,0,2,1,14,0,9,7,1,no
14,1,2,2,4,0,2,1,14,0,9,7,1,no
14,1,2,2,4,0,2,1,14,0,9,7,1,no
14,1,2,2,4,0,2,1,14,0,9,7,1,no
13,1,2,2,1,0,1,1,13,0,13,13,0,no
10,1,1,1,1,0,1,1,10,0,10,10,0,no
13,1,2,2,1,0,2,1,13,0,8,6.5,1,no
10,1,1,1,1,0,2,1,10,0,5,5,1,no
9,1,1,1,1,0,2,1,9,0,8,4.5,1,no
13,1,2,2,1,0,2,1,13,0,8,6.5,1,no
10,1,1,1,1,0,2,1,10,0,5,5,1,no
6,1,0,0,0,0,2,1,6,0,5,3,1,no
13,1,2,2,1,0,2,1,13,0,8,6.5,1,no
10,1,1,1,1,0,2,1,10,0,5,5,1,no
13,1,2,2,1,0,2,1,13,0,8,6.5,1,no
10,1,1,1,1,0,2,1,10,0,5,5,1,no
13,1,2,2,1,0,2,1,13,0,8,6.5,1,no
10,1,1,1,1,0,2,1,10,0,5,5,1,no
9,1,1,1,0,0,2,1,9,0,8,4.5,1,no
9,2,1,1,0,0,2,1,9,0,7,4.5,1,no
6,1,0,0,0,0,2,1,6,0,5,3,1,no
9,1,1,1,1,0,2,1,9,0,8,4.5,1,no
13,1,2,2,1,0,2,1,13,0,8,6.5,1,no
10,1,1,1,1,0,2,1,10,0,5,5,1,no
0,0,0,0,1,0,1,1,0,0,0,0,0,no
0,0,0,0,1,0,1,1,0,0,0,0,0,no
0,0,0,0,1,0,1,1,0,0,0,0,1,no
0,0,0,0,1,0,1,1,0,0,0,0,1,no
0,0,0,0,1,0,1,1,0,0,0,0,1,no
0,0,0,0,1,0,1,1,0,0,0,0,1,no
0,0,0,0,1,0,1,1,0,0,0,0,1,no
0,0,0,0,0,0,1,1,0,0,0,0,1,no
0,0,0,0,1,0,1,1,0,0,0,0,1,no
0,0,0,0,1,0,1,1,0,0,0,0,1,no
0,0,0,0,1,0,1,1,0,0,0,0,1,no
0,0,0,0,1,0,1,1,0,0,0,0,1,no
0,0,0,0,1,0,1,1,0,0,0,0,1,no
0,0,0,0,1,0,1,1,0,0,0,0,1,no
0,0,0,0,0,0,1,1,0,0,0,0,1,no
0,1,0,0,0,0,1,1,0,0,0,0,1,no
0,0,0,0,0,0,1,1,0,0,0,0,1,no
0,0,0,0,0,0,1,1,0,0,0,0,1,no
0,0,0,0,0,0,1,1,0,0,0,0,1,no
0,0,0,0,1,0,1,1,0,0,0,0,1,no
0,0,0,0,1,0,1,1,0,0,0,0,1,no
0,0,0,0,1,0,1,1,0,0,0,0,1,no
0,0,0,0,0,0,1,1,0,0,0,0,0,no
0,0,0,0,0,0,1,1,0,0,0,0,1,no
0,0,0,0,0,0,1,1,0,0,0,0,1,no
0,0,0,0,0,0,1,1,0,0,0,0,1,no
0,0,0,0,0,0,1,1,0,0,0,0,1,no
0,0,0,0,0,0,1,1,0,0,0,0,1,no
0,0,0,0,0,0,1,1,0,0,0,0,1,no
0,0,0,0,0,0,1,1,0,0,0,0,1,no
0,0,0,0,0,0,1,1,0,0,0,0,1,no
0,0,0,0,0,0,1,1,0,0,0,0,1,no
0,0,0,0,0,0,1,1,0,0,0,0,1,no
0,0,0,0,0,0,1,1,0,0,0,0,1,no
3,1,0,0,0,0,1,1,3,0,3,3,1,no
2,1,0,0,1,0,1,1,2,0,2,2,1,no
3,0,0,0,0,0,1,1,3,0,3,3,1,no
3,0,0,0,0,0,1,1,3,0,3,3,1,no
3,0,0,0,2,0,1,1,3,0,3,3,1,no
3,0,0,0,1,0,1,1,3,0,3,3,1,no
3,0,0,0,1,0,1,1,3,0,3,3,1,no
3,0,0,0,1,0,1,1,3,0,3,3,1,no
3,0,0,0,1,0,1,1,3,0,3,3,0,no
3,0,0,0,1,0,1,1,3,0,3,3,0,no
33,0,9,1,9,1,3,2,34,1,30,11.666667,1,no
3,0,0,0,1,0,1,1,3,0,3,3,1,no
13,0,2,2,1,3,2,1,13,0,10,6.5,1,no
10,0,1,1,1,2,1,1,10,0,10,10,1,no
3,0,0,0,0,0,1,1,3,0,3,3,1,no
3,0,0,0,0,0,1,1,3,0,3,3,1,no
3,0,0,0,0,0,1,1,3,0,3,3,1,no
3,0,0,0,1,0,2,1,4,1,3,2.5,1,no
3,0,0,0,1,0,2,1,4,1,3,2.5,1,no
3,0,0,0,1,0,1,1,3,0,3,3,0,no
3,0,0,0,1,0,2,1,4,1,3,2.5,1,no
3,0,0,0,1,0,2,1,4,1,3,2.5,1,no
3,0,0,0,1,0,2,1,4,1,3,2.5,1,no
3,0,0,0,1,0,2,1,4,1,3,2.5,1,no
3,0,0,0,1,0,2,1,4,1,3,2.5,1,no
10,0,0,0,4,0,3,2,10,0,5,3.333333,1,no
3,0,0,0,1,0,1,1,3,0,3,3,1,no
31,0,8,2,2,1,3,2,31,0,13,10.333333,1,no
3,0,0,0,0,0,1,1,3,0,3,3,1,no
3,1,0,0,1,0,1,1,3,0,3,3,1,no
3,0,0,0,0,0,1,1,3,0,3,3,1,no
4,1,0,0,2,1,1,1,4,0,4,4,1,no
8,1,1,1,1,1,1,1,8,0,8,8,1,no
8,2,1,1,1,1,1,1,8,0,8,8,1,no
3,1,0,0,1,0,1,1,3,0,3,3,1,no
3,2,0,0,1,0,1,1,3,0,3,3,1,no
3,1,0,0,1,0,1,1,3,0,3,3,1,no
3,2,0,0,1,0,1,1,3,0,3,3,1,no
3,1,0,0,1,0,1,1,3,0,3,3,1,no
3,2,0,0,1,0,1,1,3,0,3,3,1,no
3,1,0,0,1,0,1,1,3,0,3,3,1,no
3,2,0,0,1,0,1,1,3,0,3,3,1,no
3,0,0,0,0,0,1,1,3,0,3,3,1,no
3,0,0,0,2,0,1,1,3,0,3,3,1,no
28,1,8,1,8,0,3,2,29,1,25,10,1,no
3,0,0,0,0,0,2,1,3,0,2,1.5,1,no
4,1,0,0,0,0,1,1,4,0,4,4,1,no
7,0,1,1,2,1,2,1,7,0,6,3.5,1,no
7,0,1,1,2,1,2,1,7,0,6,3.5,1,no
48,0,10,1,13,3,3,2,48,0,32,16,1,no
28,0,2,1,12,0,3,2,28,0,15,9.333333,1,no
10,0,1,1,2,0,2,1,10,0,5,5,1,no
6,0,0,0,2,0,2,1,6,0,5,3,1,no
10,0,1,1,2,0,1,1,10,0,10,10,0,no
6,0,0,0,2,0,2,1,6,0,5,3,1,no
6,0,0,0,1,0,2,1,6,0,5,3,1,no
6,0,0,0,1,0,2,1,6,0,5,3,1,no
6,0,0,0,1,0,2,1,6,0,5,3,1,no
6,0,0,0,1,0,2,1,6,0,5,3,1,no
3,0,0,0,1,0,2,1,4,1,3,2.5,1,no
3,0,0,0,0,0,2,1,5,2,5,3.5,1,no
3,0,0,0,2,0,1,1,3,0,3,3,1,no
3,0,0,0,2,0,1,1,3,0,3,3,1,no
3,0,0,0,1,0,1,1,3,0,3,3,1,no
7,0,1,1,1,0,2,1,7,0,4,3.5,1,no
5,0,0,0,1,0,1,1,5,0,5,5,1,no
7,0,1,1,6,0,1,1,7,0,7,7,1,no
7,0,1,1,1,0,1,1,7,0,7,7,1,no
3,0,0,0,1,0,2,1,4,1,3,2.5,1,no
7,0,1,1,1,0,1,1,7,0,7,7,0,no
5,0,0,0,1,0,1,1,5,0,5,5,0,no
7,0,1,1,6,0,1,1,7,0,7,7,0,no
7,0,1,1,1,0,1,1,7,0,7,7,0,no
3,0,0,0,1,0,2,1,4,1,3,2.5,1,no
10,0,1,1,1,2,2,1,10,0,7,5,1,no
3,0,0,0,0,0,2,1,4,1,3,2.5,1,no
3,0,0,0,0,0,2,1,4,1,3,2.5,1,no
3,0,0,0,0,0,2,1,4,1,3,2.5,1,no
3,0,0,0,1,0,2,1,4,1,3,2.5,1,no
3,0,0,0,1,0,2,1,4,1,3,2.5,1,no
3,0,0,0,1,0,1,1,3,0,3,3,0,no
3,0,0,0,1,0,2,1,4,1,3,2.5,1,no
3,0,0,0,1,0,2,1,4,1,3,2.5,1,no
3,0,0,0,1,0,2,1,4,1,3,2.5,1,no
3,0,0,0,1,0,2,1,4,1,3,2.5,1,no
3,0,0,0,1,0,2,1,4,1,3,2.5,1,no
3,0,0,0,1,0,1,1,3,0,3,3,1,no
22,0,7,2,1,0,3,2,22,0,14,7.333333,1,no
6,0,1,1,0,0,2,2,6,0,5,3,1,no
89,2,16,3,9,8,3,2,89,0,71,29.666667,1,no
8,1,1,1,2,0,1,1,8,0,8,8,1,no
30,1,9,1,3,0,2,2,30,0,27,15,1,no
14,1,2,2,4,0,2,1,14,0,9,7,1,no
14,1,2,2,4,0,1,1,14,0,14,14,0,no
13,1,2,2,1,0,2,1,13,0,8,6.5,1,no
10,1,1,1,1,0,2,1,10,0,5,5,1,no
9,1,1,1,1,0,2,1,9,0,8,4.5,1,no
13,1,2,2,1,0,1,1,13,0,13,13,0,no
10,1,1,1,1,0,1,1,10,0,10,10,0,no
9,1,1,1,1,0,2,1,9,0,8,4.5,1,no
9,1,1,1,0,0,1,1,9,0,9,9,1,no
5,1,0,0,0,0,1,1,5,0,5,5,1,no
9,1,1,1,0,0,2,1,9,0,8,4.5,1,no
9,1,1,1,0,0,2,1,9,0,8,4.5,1,no
6,1,0,0,0,0,2,1,6,0,5,3,1,no
0,0,0,0,1,0,1,1,0,0,0,0,1,no
0,0,0,0,1,0,1,1,0,0,0,0,1,no
0,0,0,0,1,0,1,1,0,0,0,0,1,no
0,0,0,0,1,0,1,1,0,0,0,0,0,no
0,0,0,0,1,0,1,1,0,0,0,0,0,no
0,0,0,0,1,0,1,1,0,0,0,0,1,no
0,0,0,0,0,0,1,1,0,0,0,0,1,no
0,0,0,0,0,0,1,1,0,0,0,0,1,no
0,0,0,0,0,0,1,1,0,0,0,0,1,no
0,0,0,0,0,0,1,1,0,0,0,0,1,no
0,0,0,0,0,0,1,1,0,0,0,0,1,no
0,0,0,0,0,0,1,1,0,0,0,0,1,no
0,0,0,0,0,0,1,1,0,0,0,0,0,no
0,0,0,0,0,0,1,1,0,0,0,0,1,no
0,0,0,0,0,0,1,1,0,0,0,0,1,no
0,0,0,0,0,0,1,1,0,0,0,0,1,no
0,0,0,0,0,0,1,1,0,0,0,0,1,no
0,0,0,0,0,0,1,1,0,0,0,0,1,no
3,1,0,0,0,0,1,1,3,0,3,3,1,no
2,1,0,0,1,0,1,1,2,0,2,2,1,no
3,0,0,0,0,0,1,1,3,0,3,3,1,no
3,0,0,0,0,0,1,1,3,0,3,3,1,no
3,0,0,0,2,0,1,1,3,0,3,3,1,no
3,0,0,0,1,0,1,1,3,0,3,3,1,no
3,0,0,0,1,0,1,1,3,0,3,3,1,no
12,0,2,1,2,1,2,1,13,1,12,7,1,no
3,0,0,0,1,0,2,1,4,1,3,2.5,1,no
3,0,0,0,1,0,1,1,3,0,3,3,1,no
3,0,0,0,1,0,1,1,3,0,3,3,1,no
15,0,3,1,2,1,2,1,15,0,8,7.5,1,no
3,0,0,0,0,0,1,1,3,0,3,3,1,no
3,1,0,0,1,0,1,1,3,0,3,3,1,no
3,0,0,0,0,0,1,1,3,0,3,3,1,no
4,1,0,0,2,1,1,1,4,0,4,4,1,no
8,1,1,1,1,1,1,1,8,0,8,8,1,no
8,2,1,1,1,1,1,1,8,0,8,8,1,no
3,1,0,0,1,0,1,1,3,0,3,3,1,no
3,2,0,0,1,0,1,1,3,0,3,3,1,no
3,1,0,0,1,0,1,1,3,0,3,3,1,no
3,2,0,0,1,0,1,1,3,0,3,3,1,no
3,1,0,0,1,0,1,1,3,0,3,3,1,no
3,2,0,0,1,0,1,1,3,0,3,3,1,no
3,1,0,0,1,0,1,1,3,0,3,3,1,no
3,2,0,0,1,0,1,1,3,0,3,3,1,no
3,0,0,0,0,0,1,1,3,0,3,3,1,no
3,0,0,0,2,0,1,1,3,0,3,3,1,no
7,1,1,1,1,0,2,1,8,1,7,4.5,1,no
3,0,0,0,0,0,2,1,3,0,2,1.5,1,no
4,1,0,0,0,0,1,1,4,0,4,4,1,no
7,0,1,1,2,1,2,1,7,0,6,3.5,1,no
7,0,1,1,2,1,2,1,7,0,6,3.5,1,no
16,0,2,1,6,3,2,1,16,0,8,8,1,no
10,0,1,1,2,0,2,1,10,0,7,5,1,no
10,0,1,1,2,0,2,1,10,0,5,5,1,no
3,0,0,0,1,0,2,1,4,1,3,2.5,1,no
3,0,0,0,0,0,2,1,5,2,5,3.5,1,no
3,0,0,0,2,0,1,1,3,0,3,3,1,no
3,0,0,0,2,0,1,1,3,0,3,3,1,no
3,0,0,0,1,0,1,1,3,0,3,3,1,no
7,0,1,1,1,0,2,1,7,0,4,3.5,1,no
5,0,0,0,1,0,1,1,5,0,5,5,1,no
7,0,1,1,6,0,1,1,7,0,7,7,1,no
7,0,1,1,1,0,1,1,7,0,7,7,1,no
3,0,0,0,1,0,2,1,4,1,3,2.5,1,no
3,0,0,0,1,0,1,1,3,0,3,3,1,no
9,0,2,1,2,0,2,1,9,0,6,4.5,1,no
5,0,1,1,0,0,1,1,5,0,5,5,1,no
31,2,6,3,3,3,2,1,31,0,29,15.5,1,no
8,1,1,1,2,0,1,1,8,0,8,8,1,no
9,1,2,1,3,0,1,1,9,0,9,9,1,no
14,1,2,2,4,0,2,1,14,0,9,7,1,no
13,1,2,2,1,0,2,1,13,0,8,6.5,1,no
10,1,1,1,1,0,2,1,10,0,5,5,1,no
0,0,0,0,1,0,1,1,0,0,0,0,1,no
0,0,0,0,1,0,1,1,0,0,0,0,1,no
0,0,0,0,0,0,1,1,0,0,0,0,1,no
3,1,0,0,0,0,1,1,3,0,3,3,0,no
2,1,0,0,1,0,1,1,2,0,2,2,0,no
3,0,0,0,0,0,1,1,3,0,3,3,0,no
3,0,0,0,0,0,1,1,3,0,3,3,0,no
3,0,0,0,2,0,1,1,3,0,3,3,0,no
3,0,0,0,1,0,1,1,3,0,3,3,0,no
3,0,0,0,1,0,1,1,3,0,3,3,0,no
12,0,2,1,2,1,1,1,12,0,12,12,0,no
3,0,0,0,1,0,1,1,3,0,3,3,0,no
3,0,0,0,1,0,1,1,3,0,3,3,0,no
3,0,0,0,1,0,1,1,3,0,3,3,0,no
15,0,3,1,2,1,1,1,15,0,15,15,0,no
3,0,0,0,0,0,1,1,3,0,3,3,0,no
3,1,0,0,1,0,1,1,3,0,3,3,0,no
3,0,0,0,0,0,1,1,3,0,3,3,0,no
4,1,0,0,2,1,1,1,4,0,4,4,0,no
8,1,1,1,1,1,1,1,8,0,8,8,0,no
8,2,1,1,1,1,1,1,8,0,8,8,0,no
3,1,0,0,1,0,1,1,3,0,3,3,0,no
3,2,0,0,1,0,1,1,3,0,3,3,0,no
3,1,0,0,1,0,1,1,3,0,3,3,0,no
3,2,0,0,1,0,1,1,3,0,3,3,0,no
3,1,0,0,1,0,1,1,3,0,3,3,0,no
3,2,0,0,1,0,1,1,3,0,3,3,0,no
3,1,0,0,1,0,1,1,3,0,3,3,0,no
3,2,0,0,1,0,1,1,3,0,3,3,0,no
3,0,0,0,0,0,1,1,3,0,3,3,0,no
3,0,0,0,2,0,1,1,3,0,3,3,0,no
7,1,1,1,1,0,1,1,7,0,7,7,0,no
3,0,0,0,0,0,1,1,3,0,3,3,0,no
4,1,0,0,0,0,1,1,4,0,4,4,0,no
7,0,1,1,2,1,1,1,7,0,7,7,0,no
7,0,1,1,2,1,1,1,7,0,7,7,0,no
16,0,2,1,6,3,1,1,16,0,16,16,0,no
10,0,1,1,2,0,1,1,10,0,10,10,0,no
10,0,1,1,2,0,1,1,10,0,10,10,0,no
3,0,0,0,1,0,1,1,3,0,3,3,0,no
3,0,0,0,0,0,1,1,3,0,3,3,0,no
3,0,0,0,2,0,1,1,3,0,3,3,0,no
3,0,0,0,2,0,1,1,3,0,3,3,0,no
3,0,0,0,1,0,1,1,3,0,3,3,0,no
7,0,1,1,1,0,1,1,7,0,7,7,0,no
5,0,0,0,1,0,1,1,5,0,5,5,0,no
7,0,1,1,6,0,1,1,7,0,7,7,0,no
7,0,1,1,1,0,1,1,7,0,7,7,0,no
3,0,0,0,1,0,1,1,3,0,3,3,0,no
3,0,0,0,1,0,1,1,3,0,3,3,0,no
9,0,2,1,2,0,1,1,9,0,9,9,0,no
5,0,1,1,0,0,1,1,5,0,5,5,0,no
31,2,6,3,3,3,1,1,31,0,31,31,0,no
8,1,1,1,2,0,1,1,8,0,8,8,0,no
9,1,2,1,3,0,1,1,9,0,9,9,0,no
14,1,2,2,4,0,1,1,14,0,14,14,0,no
13,1,2,2,1,0,1,1,13,0,13,13,0,no
10,1,1,1,1,0,1,1,10,0,10,10,0,no
0,0,0,0,1,0,1,1,0,0,0,0,0,no
0,0,0,0,1,0,1,1,0,0,0,0,0,no
0,0,0,0,0,0,1,1,0,0,0,0,0,no
3,1,0,0,0,0,1,1,3,0,3,3,1,no
2,1,0,0,1,0,1,1,2,0,2,2,1,no
3,0,0,0,0,0,1,1,3,0,3,3,1,no
3,0,0,0,0,0,1,1,3,0,3,3,1,no
3,0,0,0,2,0,1,1,3,0,3,3,1,no
3,0,0,0,0,0,1,1,3,0,3,3,1,no
3,0,0,0,0,0,1,1,3,0,3,3,1,no
15,0,3,1,3,1,2,1,16,1,15,8.5,1,no
3,0,0,0,1,0,2,1,4,1,3,2.5,1,no
3,0,0,0,1,0,2,1,4,1,3,2.5,1,no
4,0,0,0,0,0,2,1,4,0,2,2,1,no
3,0,0,0,1,0,1,1,3,0,3,3,1,no
15,0,3,1,2,1,2,1,15,0,8,7.5,1,no
3,0,0,0,0,0,1,1,3,0,3,3,1,no
3,1,0,0,1,0,1,1,3,0,3,3,1,no
3,0,0,0,0,0,1,1,3,0,3,3,1,no
4,1,0,0,2,1,1,1,4,0,4,4,1,no
8,1,1,1,1,1,1,1,8,0,8,8,1,no
8,2,1,1,1,1,1,1,8,0,8,8,1,no
3,1,0,0,1,0,1,1,3,0,3,3,1,no
3,2,0,0,1,0,1,1,3,0,3,3,1,no
3,1,0,0,1,0,1,1,3,0,3,3,1,no
3,2,0,0,1,0,1,1,3,0,3,3,1,no
3,1,0,0,1,0,1,1,3,0,3,3,1,no
3,2,0,0,1,0,1,1,3,0,3,3,1,no
3,1,0,0,1,0,1,1,3,0,3,3,1,no
3,2,0,0,1,0,1,1,3,0,3,3,1,no
3,0,0,0,0,0,1,1,3,0,3,3,1,no
3,0,0,0,2,0,1,1,3,0,3,3,1,no
10,1,2,1,2,0,2,1,11,1,10,6,1,no
3,0,0,0,0,0,2,1,3,0,2,1.5,1,no
4,1,0,0,0,0,1,1,4,0,4,4,1,no
7,0,1,1,2,1,2,1,7,0,6,3.5,1,no
7,0,1,1,2,1,2,1,7,0,6,3.5,1,no
16,0,2,1,7,3,2,1,16,0,8,8,1,no
8,0,0,0,2,0,2,1,8,0,7,4,1,no
6,0,0,0,1,0,2,1,6,0,5,3,1,no
6,0,0,0,1,0,2,1,6,0,5,3,1,no
3,0,0,0,1,0,2,1,4,1,3,2.5,1,no
3,0,0,0,0,0,2,1,5,2,5,3.5,1,no
3,0,0,0,2,0,1,1,3,0,3,3,1,no
3,0,0,0,2,0,1,1,3,0,3,3,1,no
3,0,0,0,1,0,1,1,3,0,3,3,1,no
3,0,0,0,0,0,2,1,4,1,3,2.5,1,no
3,0,0,0,0,0,2,1,4,1,3,2.5,1,no
3,0,0,0,1,0,2,1,4,1,3,2.5,1,no
3,0,0,0,1,0,2,1,4,1,3,2.5,1,no
3,0,0,0,1,0,1,1,3,0,3,3,1,no
9,0,2,1,2,0,2,1,9,0,6,4.5,1,no
4,0,1,1,1,0,1,1,4,0,4,4,1,no
33,2,6,3,1,2,2,1,33,0,29,16.5,1,no
8,1,1,1,2,0,1,1,8,0,8,8,1,no
12,1,3,1,3,0,1,1,12,0,12,12,1,no
9,1,1,1,0,0,2,1,9,0,8,4.5,1,no
6,1,0,0,0,0,2,1,6,0,5,3,1,no
0,0,0,0,0,0,1,1,0,0,0,0,1,no
0,0,0,0,0,0,1,1,0,0,0,0,1,no
0,0,0,0,0,0,1,1,0,0,0,0,1,no
0,0,0,0,0,0,1,1,0,0,0,0,1,no
3,1,0,0,0,0,1,1,3,0,3,3,0,no
2,1,0,0,1,0,1,1,2,0,2,2,0,no
3,0,0,0,0,0,1,1,3,0,3,3,0,no
3,0,0,0,0,0,1,1,3,0,3,3,0,no
3,0,0,0,2,0,1,1,3,0,3,3,0,no
3,0,0,0,1,0,1,1,3,0,3,3,0,no
3,0,0,0,1,0,1,1,3,0,3,3,0,no
18,0,4,1,4,1,3,2,18,0,12,6,0,no
3,0,0,0,1,0,1,1,3,0,3,3,0,no
3,0,0,0,1,0,1,1,3,0,3,3,0,no
3,0,0,0,1,0,1,1,3,0,3,3,0,no
3,0,0,0,1,0,1,1,3,0,3,3,0,no
3,0,0,0,1,0,1,1,3,0,3,3,0,no
3,0,0,0,1,0,1,1,3,0,3,3,0,no
3,0,0,0,1,0,1,1,3,0,3,3,0,no
5,0,0,0,3,0,3,2,5,0,3,1.666667,0,no
3,0,0,0,1,0,1,1,3,0,3,3,0,no
13,0,3,2,2,1,1,1,13,0,13,13,0,no
3,0,0,0,0,0,1,1,3,0,3,3,0,no
3,1,0,0,1,0,1,1,3,0,3,3,0,no
3,0,0,0,0,0,1,1,3,0,3,3,0,no
4,1,0,0,2,1,1,1,4,0,4,4,0,no
8,1,1,1,1,1,1,1,8,0,8,8,0,no
8,2,1,1,1,1,1,1,8,0,8,8,0,no
3,1,0,0,1,0,1,1,3,0,3,3,0,no
3,2,0,0,1,0,1,1,3,0,3,3,0,no
3,1,0,0,1,0,1,1,3,0,3,3,0,no
3,2,0,0,1,0,1,1,3,0,3,3,0,no
3,1,0,0,1,0,1,1,3,0,3,3,0,no
3,2,0,0,1,0,1,1,3,0,3,3,0,no
3,1,0,0,1,0,1,1,3,0,3,3,0,no
3,2,0,0,1,0,1,1,3,0,3,3,0,no
3,0,0,0,0,0,1,1,3,0,3,3,0,no
3,0,0,0,2,0,1,1,3,0,3,3,0,no
13,1,3,1,3,0,3,2,13,0,7,4.333333,0,no
3,0,0,0,0,0,1,1,3,0,3,3,0,no
4,1,0,0,0,0,1,1,4,0,4,4,0,no
7,0,1,1,2,1,1,1,7,0,7,7,0,no
7,0,1,1,2,1,1,1,7,0,7,7,0,no
32,0,6,1,8,3,3,2,32,0,16,10.666667,0,no
22,0,3,1,6,0,3,2,22,0,10,7.333333,0,no
10,0,1,1,2,0,1,1,10,0,10,10,0,no
10,0,1,1,2,0,1,1,10,0,10,10,0,no
10,0,1,1,2,0,1,1,10,0,10,10,0,no
3,0,0,0,1,0,1,1,3,0,3,3,0,no
3,0,0,0,0,0,1,1,3,0,3,3,0,no
3,0,0,0,2,0,1,1,3,0,3,3,0,no
3,0,0,0,2,0,1,1,3,0,3,3,0,no
3,0,0,0,1,0,1,1,3,0,3,3,0,no
7,0,1,1,1,0,1,1,7,0,7,7,0,no
5,0,0,0,1,0,1,1,5,0,5,5,0,no
7,0,1,1,6,0,1,1,7,0,7,7,0,no
7,0,1,1,1,0,1,1,7,0,7,7,0,no
7,0,1,1,1,0,1,1,7,0,7,7,0,no
5,0,0,0,1,0,1,1,5,0,5,5,0,no
7,0,1,1,6,0,1,1,7,0,7,7,0,no
7,0,1,1,1,0,1,1,7,0,7,7,0,no
7,0,1,1,1,0,1,1,7,0,7,7,0,no
5,0,0,0,1,0,1,1,5,0,5,5,0,no
7,0,1,1,6,0,1,1,7,0,7,7,0,no
7,0,1,1,1,0,1,1,7,0,7,7,0,no
3,0,0,0,1,0,1,1,3,0,3,3,0,no
3,0,0,0,1,0,1,1,3,0,3,3,0,no
3,0,0,0,1,0,1,1,3,0,3,3,0,no
3,0,0,0,1,0,1,1,3,0,3,3,0,no
8,0,2,2,1,0,1,1,8,0,8,8,0,no
7,0,1,1,0,0,3,2,7,0,5,2.333333,0,no
51,2,10,3,7,5,3,2,51,0,31,17,0,no
8,1,1,1,2,0,1,1,8,0,8,8,0,no
15,1,4,1,3,0,3,2,15,0,9,5,0,no
14,1,2,2,4,0,1,1,14,0,14,14,0,no
14,1,2,2,4,0,1,1,14,0,14,14,0,no
14,1,2,2,4,0,1,1,14,0,14,14,0,no
13,1,2,2,1,0,1,1,13,0,13,13,0,no
10,1,1,1,1,0,1,1,10,0,10,10,0,no
13,1,2,2,1,0,1,1,13,0,13,13,0,no
10,1,1,1,1,0,1,1,10,0,10,10,0,no
13,1,2,2,1,0,1,1,13,0,13,13,0,no
10,1,1,1,1,0,1,1,10,0,10,10,0,no
0,0,0,0,1,0,1,1,0,0,0,0,0,no
0,0,0,0,1,0,1,1,0,0,0,0,0,no
0,0,0,0,1,0,1,1,0,0,0,0,0,no
0,0,0,0,1,0,1,1,0,0,0,0,0,no
0,0,0,0,1,0,1,1,0,0,0,0,0,no
0,0,0,0,1,0,1,1,0,0,0,0,0,no
0,0,0,0,0,0,1,1,0,0,0,0,0,no
0,0,0,0,0,0,1,1,0,0,0,0,0,no
0,0,0,0,0,0,1,1,0,0,0,0,0,no
3,1,0,0,0,0,1,1,3,0,3,3,1,no
2,1,0,0,1,0,1,1,2,0,2,2,1,no
3,0,0,0,0,0,1,1,3,0,3,3,1,no
3,0,0,0,0,0,1,1,3,0,3,3,1,no
3,0,0,0,2,0,1,1,3,0,3,3,1,no
12,0,2,1,2,1,2,1,13,1,12,7,1,no
3,0,0,0,0,0,1,1,3,0,3,3,1,no
3,0,0,0,1,0,2,1,4,1,3,2.5,1,no
3,0,0,0,0,0,2,1,3,0,2,1.5,1,no
3,0,0,0,1,0,1,1,3,0,3,3,1,no
11,0,2,1,2,1,2,1,11,0,6,5.5,1,no
3,0,0,0,0,0,1,1,3,0,3,3,1,no
3,1,0,0,1,0,1,1,3,0,3,3,1,no
3,0,0,0,0,0,1,1,3,0,3,3,1,no
4,1,0,0,2,1,1,1,4,0,4,4,1,no
8,1,1,1,1,1,1,1,8,0,8,8,1,no
8,2,1,1,1,1,1,1,8,0,8,8,1,no
3,1,0,0,1,0,1,1,3,0,3,3,1,no
3,2,0,0,1,0,1,1,3,0,3,3,1,no
3,1,0,0,1,0,1,1,3,0,3,3,1,no
3,2,0,0,1,0,1,1,3,0,3,3,1,no
3,1,0,0,1,0,1,1,3,0,3,3,1,no
3,2,0,0,1,0,1,1,3,0,3,3,1,no
3,1,0,0,1,0,1,1,3,0,3,3,1,no
3,2,0,0,1,0,1,1,3,0,3,3,1,no
3,0,0,0,0,0,1,1,3,0,3,3,1,no
3,0,0,0,2,0,1,1,3,0,3,3,1,no
7,1,1,1,1,0,2,1,8,1,7,4.5,1,no
3,0,0,0,0,0,2,1,3,0,2,1.5,1,no
4,1,0,0,0,0,1,1,4,0,4,4,1,no
7,0,1,1,2,1,2,1,7,0,6,3.5,1,no
7,0,1,1,2,1,2,1,7,0,6,3.5,1,no
12,0,1,1,6,3,2,1,12,0,8,6,1,no
6,0,0,0,1,0,2,1,7,1,7,4,1,no
6,0,0,0,1,0,2,1,6,0,5,3,1,no
3,0,0,0,1,0,2,1,4,1,3,2.5,1,no
3,0,0,0,0,0,2,1,5,2,5,3.5,1,no
3,0,0,0,2,0,1,1,3,0,3,3,1,no
3,0,0,0,2,0,1,1,3,0,3,3,1,no
3,0,0,0,1,0,1,1,3,0,3,3,1,no
3,0,0,0,0,0,2,1,4,1,3,2.5,1,no
3,0,0,0,1,0,2,1,4,1,3,2.5,1,no
3,0,0,0,1,0,1,1,3,0,3,3,1,no
6,0,1,1,2,0,2,1,6,0,3,3,1,no
4,0,1,1,1,0,1,1,4,0,4,4,1,no
27,2,5,3,1,2,2,1,27,0,24,13.5,1,no
8,1,1,1,2,0,1,1,8,0,8,8,1,no
9,1,2,1,3,0,1,1,9,0,9,9,1,no
9,1,1,1,0,0,2,1,9,0,8,4.5,1,no
0,0,0,0,0,0,1,1,0,0,0,0,1,no
0,0,0,0,0,0,1,1,0,0,0,0,1,no
4,2,0,0,1,0,1,1,4,0,4,4,1,no
3,0,0,0,1,0,2,1,4,1,3,2.5,1,no
3,0,0,0,0,0,1,1,3,0,3,3,1,no
3,0,0,0,0,0,1,1,3,0,3,3,1,no
3,0,0,0,0,0,1,1,3,0,3,3,1,no
3,0,0,0,0,0,1,1,3,0,3,3,1,no
6,1,1,1,1,0,1,1,6,0,6,6,1,no
48,1,22,1,0,0,5,1,48,0,30,9.6,1,no
3,1,0,0,0,0,1,1,3,0,3,3,1,no
3,1,0,0,0,0,1,1,3,0,3,3,1,no
2,1,0,0,1,0,1,1,2,0,2,2,1,no
3,0,0,0,0,0,1,1,3,0,3,3,1,no
3,0,0,0,0,0,1,1,3,0,3,3,1,no
3,0,0,0,2,0,1,1,3,0,3,3,1,no
12,0,2,1,2,1,2,1,13,1,12,7,1,no
3,0,0,0,0,0,1,1,3,0,3,3,1,no
3,0,0,0,1,0,2,1,4,1,3,2.5,1,no
3,0,0,0,0,0,2,1,3,0,2,1.5,1,no
3,0,0,0,1,0,1,1,3,0,3,3,1,no
11,0,2,1,2,1,2,1,11,0,6,5.5,1,no
3,0,0,0,0,0,1,1,3,0,3,3,1,no
3,1,0,0,1,0,1,1,3,0,3,3,1,no
3,0,0,0,0,0,1,1,3,0,3,3,1,no
4,1,0,0,2,1,1,1,4,0,4,4,1,no
8,1,1,1,1,1,1,1,8,0,8,8,1,no
8,2,1,1,1,1,1,1,8,0,8,8,1,no
3,1,0,0,1,0,1,1,3,0,3,3,1,no
3,2,0,0,1,0,1,1,3,0,3,3,1,no
3,1,0,0,1,0,1,1,3,0,3,3,1,no
3,2,0,0,1,0,1,1,3,0,3,3,1,no
3,1,0,0,1,0,1,1,3,0,3,3,1,no
3,2,0,0,1,0,1,1,3,0,3,3,1,no
3,1,0,0,1,0,1,1,3,0,3,3,1,no
3,2,0,0,1,0,1,1,3,0,3,3,1,no
3,0,0,0,0,0,1,1,3,0,3,3,1,no
3,0,0,0,2,0,1,1,3,0,3,3,1,no
7,1,1,1,1,0,2,1,8,1,7,4.5,1,no
3,0,0,0,0,0,2,1,3,0,2,1.5,1,no
4,1,0,0,0,0,1,1,4,0,4,4,1,no
7,0,1,1,2,1,2,1,7,0,6,3.5,1,no
7,0,1,1,2,1,2,1,7,0,6,3.5,1,no
12,0,1,1,6,3,2,1,12,0,8,6,1,no
6,0,0,0,1,0,2,1,7,1,7,4,1,no
6,0,0,0,1,0,2,1,6,0,5,3,1,no
3,0,0,0,1,0,2,1,4,1,3,2.5,1,no
3,0,0,0,0,0,2,1,5,2,5,3.5,1,no
3,0,0,0,2,0,1,1,3,0,3,3,1,no
3,0,0,0,2,0,1,1,3,0,3,3,1,no
3,0,0,0,1,0,1,1,3,0,3,3,1,no
3,0,0,0,0,0,2,1,4,1,3,2.5,1,no
3,0,0,0,1,0,2,1,4,1,3,2.5,1,no
3,0,0,0,1,0,1,1,3,0,3,3,1,no
6,0,1,1,2,0,2,1,6,0,3,3,1,no
4,0,1,1,1,0,1,1,4,0,4,4,1,no
27,2,5,3,1,2,2,1,27,0,24,13.5,1,no
8,1,1,1,2,0,1,1,8,0,8,8,1,no
9,1,2,1,3,0,1,1,9,0,9,9,1,no
9,1,1,1,0,0,2,1,9,0,8,4.5,1,no
0,0,0,0,0,0,1,1,0,0,0,0,1,no
0,0,0,0,0,0,1,1,0,0,0,0,1,no
3,1,0,0,0,0,1,1,3,0,3,3,1,no
2,1,0,0,1,0,1,1,2,0,2,2,1,no
3,0,0,0,1,0,1,1,3,0,3,3,1,no
3,0,0,0,0,0,1,1,3,0,3,3,1,no
3,0,0,0,0,0,1,1,3,0,3,3,1,no
3,0,0,0,2,0,1,1,3,0,3,3,1,no
3,0,0,0,0,0,1,1,3,0,3,3,0,no
3,0,0,0,0,0,1,1,3,0,3,3,0,no
3,0,0,0,1,0,1,1,3,0,3,3,0,no
3,0,0,0,1,0,1,1,3,0,3,3,0,no
27,0,7,1,7,1,5,1,28,1,18,5.8,1,no
3,0,0,0,0,0,1,1,3,0,3,3,1,no
3,0,0,0,0,0,1,1,3,0,3,3,1,no
3,0,0,0,1,0,2,1,4,1,3,2.5,1,no
3,0,0,0,1,0,1,1,3,0,3,3,0,no
3,0,0,0,1,0,2,1,4,1,3,2.5,1,no
3,0,0,0,1,0,1,1,3,0,3,3,0,no
3,0,0,0,1,0,2,1,4,1,3,2.5,1,no
3,0,0,0,1,0,2,1,4,1,3,2.5,1,no
8,0,0,0,2,0,4,1,8,0,3,2,1,no
3,0,0,0,1,0,1,1,3,0,3,3,1,no
11,0,2,1,2,1,2,1,11,0,6,5.5,1,no
3,0,0,0,0,0,1,1,3,0,3,3,1,no
3,1,0,0,1,0,1,1,3,0,3,3,1,no
3,0,0,0,0,0,1,1,3,0,3,3,1,no
4,1,0,0,2,1,1,1,4,0,4,4,1,no
8,1,1,1,1,1,1,1,8,0,8,8,1,no
8,2,1,1,1,1,1,1,8,0,8,8,1,no
3,1,0,0,1,0,1,1,3,0,3,3,1,no
3,2,0,0,1,0,1,1,3,0,3,3,1,no
3,1,0,0,1,0,1,1,3,0,3,3,1,no
3,2,0,0,1,0,1,1,3,0,3,3,1,no
3,1,0,0,1,0,1,1,3,0,3,3,1,no
3,2,0,0,1,0,1,1,3,0,3,3,1,no
3,1,0,0,1,0,1,1,3,0,3,3,1,no
3,2,0,0,1,0,1,1,3,0,3,3,1,no
3,0,0,0,0,0,1,1,3,0,3,3,1,no
3,0,0,0,2,0,1,1,3,0,3,3,1,no
22,1,6,1,6,0,5,1,23,1,13,4.8,1,no
3,0,0,0,0,0,2,1,3,0,2,1.5,1,no
4,1,0,0,0,0,1,1,4,0,4,4,1,no
7,0,1,1,2,1,2,1,7,0,6,3.5,1,no
7,0,1,1,2,1,2,1,7,0,6,3.5,1,no
36,0,7,1,11,3,4,1,36,0,16,9,1,no
20,0,1,1,8,0,4,1,20,0,7,5,1,no
6,0,0,0,2,0,2,1,6,0,5,3,1,no
6,0,0,0,1,0,1,1,6,0,6,6,0,no
6,0,0,0,1,0,2,1,6,0,5,3,1,no
10,0,1,1,2,0,1,1,10,0,10,10,0,no
6,0,0,0,1,0,2,1,6,0,5,3,1,no
6,0,0,0,1,0,2,1,6,0,5,3,1,no
3,0,0,0,1,0,2,1,4,1,3,2.5,1,no
3,0,0,0,0,0,2,1,5,2,5,3.5,1,no
3,0,0,0,1,0,2,1,4,1,3,2.5,1,no
3,0,0,0,2,0,1,1,3,0,3,3,1,no
3,0,0,0,2,0,1,1,3,0,3,3,1,no
3,0,0,0,1,0,1,1,3,0,3,3,1,no
3,0,0,0,0,0,1,1,3,0,3,3,0,no
3,0,0,0,0,0,2,1,4,1,3,2.5,1,no
7,0,1,1,1,0,1,1,7,0,7,7,0,no
5,0,0,0,1,0,1,1,5,0,5,5,0,no
7,0,1,1,6,0,1,1,7,0,7,7,0,no
7,0,1,1,1,0,1,1,7,0,7,7,0,no
3,0,0,0,0,0,2,1,4,1,3,2.5,1,no
3,0,0,0,0,0,2,1,4,1,3,2.5,1,no
3,0,0,0,1,0,2,1,4,1,3,2.5,1,no
3,0,0,0,1,0,1,1,3,0,3,3,0,no
3,0,0,0,1,0,2,1,4,1,3,2.5,1,no
3,0,0,0,1,0,1,1,3,0,3,3,0,no
3,0,0,0,1,0,2,1,4,1,3,2.5,1,no
3,0,0,0,1,0,2,1,4,1,3,2.5,1,no
3,0,0,0,1,0,1,1,3,0,3,3,1,no
6,0,1,1,2,0,2,1,6,0,3,3,1,no
5,0,1,1,0,0,2,1,5,0,4,2.5,1,no
67,2,12,3,5,5,5,1,67,0,40,13.4,1,no
8,1,1,1,2,0,1,1,8,0,8,8,1,no
24,1,7,1,3,0,4,1,24,0,15,6,1,no
14,1,2,2,4,0,1,1,14,0,14,14,0,no
9,1,1,1,1,0,2,1,9,0,8,4.5,1,no
6,1,0,0,0,0,1,1,6,0,6,6,0,no
6,1,0,0,0,0,2,1,6,0,5,3,1,no
13,1,2,2,1,0,1,1,13,0,13,13,0,no
10,1,1,1,1,0,1,1,10,0,10,10,0,no
9,1,1,1,0,0,2,1,9,0,8,4.5,1,no
6,1,0,0,0,0,2,1,6,0,5,3,1,no
4,2,0,0,1,0,1,1,4,0,4,4,1,no
3,0,0,0,1,0,1,1,3,0,3,3,1,no
3,0,0,0,0,0,1,1,3,0,3,3,1,no
3,0,0,0,0,0,1,1,3,0,3,3,1,no
3,0,0,0,0,0,1,1,3,0,3,3,1,no
3,0,0,0,0,0,1,1,3,0,3,3,1,no
6,1,1,1,1,0,1,1,6,0,6,6,1,no
12,1,4,1,0,0,1,1,12,0,12,12,1,no
3,1,0,0,0,0,1,1,3,0,3,3,1,no
0,0,0,0,1,0,1,1,0,0,0,0,1,no
0,0,0,0,0,0,1,1,0,0,0,0,0,no
0,0,0,0,0,0,1,1,0,0,0,0,1,no
0,0,0,0,1,0,1,1,0,0,0,0,0,no
0,0,0,0,1,0,1,1,0,0,0,0,0,no
0,0,0,0,0,0,1,1,0,0,0,0,1,no
0,0,0,0,0,0,1,1,0,0,0,0,1,no
0,0,0,0,0,0,1,1,0,0,0,0,1,no
0,0,0,0,0,0,1,1,0,0,0,0,0,no
0,0,0,0,0,0,1,1,0,0,0,0,1,no
0,0,0,0,0,0,1,1,0,0,0,0,0,no
0,0,0,0,0,0,1,1,0,0,0,0,1,no
0,0,0,0,0,0,1,1,0,0,0,0,1,no
3,1,0,0,0,0,1,1,3,0,3,3,0,no
2,1,0,0,1,0,1,1,2,0,2,2,0,no
3,0,0,0,0,0,1,1,3,0,3,3,0,no
3,0,0,0,0,0,1,1,3,0,3,3,0,no
3,0,0,0,2,0,1,1,3,0,3,3,0,no
3,0,0,0,1,0,1,1,3,0,3,3,0,no
3,0,0,0,1,0,1,1,3,0,3,3,0,no
12,0,2,1,2,1,1,1,12,0,12,12,0,no
3,0,0,0,1,0,1,1,3,0,3,3,0,no
3,0,0,0,1,0,1,1,3,0,3,3,0,no
3,0,0,0,1,0,1,1,3,0,3,3,0,no
7,0,1,1,2,1,1,1,7,0,7,7,0,no
3,0,0,0,0,0,1,1,3,0,3,3,0,no
3,1,0,0,1,0,1,1,3,0,3,3,0,no
3,0,0,0,0,0,1,1,3,0,3,3,0,no
4,1,0,0,2,1,1,1,4,0,4,4,0,no
8,1,1,1,1,1,1,1,8,0,8,8,0,no
8,2,1,1,1,1,1,1,8,0,8,8,0,no
3,1,0,0,1,0,1,1,3,0,3,3,0,no
3,2,0,0,1,0,1,1,3,0,3,3,0,no
3,1,0,0,1,0,1,1,3,0,3,3,0,no
3,2,0,0,1,0,1,1,3,0,3,3,0,no
3,1,0,0,1,0,1,1,3,0,3,3,0,no
3,2,0,0,1,0,1,1,3,0,3,3,0,no
3,1,0,0,1,0,1,1,3,0,3,3,0,no
3,2,0,0,1,0,1,1,3,0,3,3,0,no
3,0,0,0,0,0,1,1,3,0,3,3,0,no
3,0,0,0,2,0,1,1,3,0,3,3,0,no
7,1,1,1,1,0,1,1,7,0,7,7,0,no
3,0,0,0,0,0,1,1,3,0,3,3,0,no
4,1,0,0,0,0,1,1,4,0,4,4,0,no
7,0,1,1,2,1,1,1,7,0,7,7,0,no
7,0,1,1,2,1,1,1,7,0,7,7,0,no
16,0,2,1,6,3,1,1,16,0,16,16,0,no
10,0,1,1,2,0,1,1,10,0,10,10,0,no
10,0,1,1,2,0,1,1,10,0,10,10,0,no
3,0,0,0,1,0,1,1,3,0,3,3,0,no
3,0,0,0,0,0,1,1,3,0,3,3,0,no
3,0,0,0,2,0,1,1,3,0,3,3,0,no
3,0,0,0,2,0,1,1,3,0,3,3,0,no
3,0,0,0,1,0,1,1,3,0,3,3,0,no
7,0,1,1,1,0,1,1,7,0,7,7,0,no
5,0,0,0,1,0,1,1,5,0,5,5,0,no
7,0,1,1,6,0,1,1,7,0,7,7,0,no
7,0,1,1,1,0,1,1,7,0,7,7,0,no
3,0,0,0,1,0,1,1,3,0,3,3,0,no
3,0,0,0,1,0,1,1,3,0,3,3,0,no
3,0,0,0,1,0,1,1,3,0,3,3,0,no
5,0,1,1,0,0,1,1,5,0,5,5,0,no
31,2,6,3,3,3,1,1,31,0,31,31,0,no
8,1,1,1,2,0,1,1,8,0,8,8,0,no
9,1,2,1,3,0,1,1,9,0,9,9,0,no
14,1,2,2,4,0,1,1,14,0,14,14,0,no
13,1,2,2,1,0,1,1,13,0,13,13,0,no
10,1,1,1,1,0,1,1,10,0,10,10,0,no
0,0,0,0,1,0,1,1,0,0,0,0,0,no
0,0,0,0,1,0,1,1,0,0,0,0,0,no
0,0,0,0,0,0,1,1,0,0,0,0,0,no
3,1,0,0,0,0,1,1,3,0,3,3,0,no
2,1,0,0,1,0,1,1,2,0,2,2,0,no
3,0,0,0,0,0,1,1,3,0,3,3,0,no
3,0,0,0,0,0,1,1,3,0,3,3,0,no
3,0,0,0,2,0,1,1,3,0,3,3,0,no
3,0,0,0,1,0,1,1,3,0,3,3,0,no
3,0,0,0,1,0,1,1,3,0,3,3,0,no
15,0,3,1,3,1,1,1,15,0,15,15,0,no
3,0,0,0,1,0,1,1,3,0,3,3,0,no
3,0,0,0,1,0,1,1,3,0,3,3,0,no
3,0,0,0,1,0,1,1,3,0,3,3,0,no
3,0,0,0,1,0,1,1,3,0,3,3,0,no
4,0,0,0,2,0,1,1,4,0,4,4,0,no
3,0,0,0,1,0,1,1,3,0,3,3,0,no
13,0,3,2,2,1,1,1,13,0,13,13,0,no
3,0,0,0,0,0,1,1,3,0,3,3,0,no
3,1,0,0,1,0,1,1,3,0,3,3,0,no
3,0,0,0,0,0,1,1,3,0,3,3,0,no
4,1,0,0,2,1,1,1,4,0,4,4,0,no
8,1,1,1,1,1,1,1,8,0,8,8,0,no
8,2,1,1,1,1,1,1,8,0,8,8,0,no
3,1,0,0,1,0,1,1,3,0,3,3,0,no
3,2,0,0,1,0,1,1,3,0,3,3,0,no
3,1,0,0,1,0,1,1,3,0,3,3,0,no
3,2,0,0,1,0,1,1,3,0,3,3,0,no
3,1,0,0,1,0,1,1,3,0,3,3,0,no
3,2,0,0,1,0,1,1,3,0,3,3,0,no
3,1,0,0,1,0,1,1,3,0,3,3,0,no
3,2,0,0,1,0,1,1,3,0,3,3,0,no
3,0,0,0,0,0,1,1,3,0,3,3,0,no
3,0,0,0,2,0,1,1,3,0,3,3,0,no
10,1,2,1,2,0,1,1,10,0,10,10,0,no
3,0,0,0,0,0,1,1,3,0,3,3,0,no
4,1,0,0,0,0,1,1,4,0,4,4,0,no
7,0,1,1,2,1,1,1,7,0,7,7,0,no
7,0,1,1,2,1,1,1,7,0,7,7,0,no
24,0,4,1,7,3,1,1,24,0,24,24,0,no
16,0,2,1,4,0,1,1,16,0,16,16,0,no
10,0,1,1,2,0,1,1,10,0,10,10,0,no
10,0,1,1,2,0,1,1,10,0,10,10,0,no
3,0,0,0,1,0,1,1,3,0,3,3,0,no
3,0,0,0,0,0,1,1,3,0,3,3,0,no
3,0,0,0,2,0,1,1,3,0,3,3,0,no
3,0,0,0,2,0,1,1,3,0,3,3,0,no
3,0,0,0,1,0,1,1,3,0,3,3,0,no
7,0,1,1,1,0,1,1,7,0,7,7,0,no
5,0,0,0,1,0,1,1,5,0,5,5,0,no
7,0,1,1,6,0,1,1,7,0,7,7,0,no
7,0,1,1,1,0,1,1,7,0,7,7,0,no
7,0,1,1,1,0,1,1,7,0,7,7,0,no
5,0,0,0,1,0,1,1,5,0,5,5,0,no
7,0,1,1,6,0,1,1,7,0,7,7,0,no
7,0,1,1,1,0,1,1,7,0,7,7,0,no
3,0,0,0,1,0,1,1,3,0,3,3,0,no
3,0,0,0,1,0,1,1,3,0,3,3,0,no
3,0,0,0,1,0,1,1,3,0,3,3,0,no
8,0,2,2,1,0,1,1,8,0,8,8,0,no
6,0,1,1,0,0,1,1,6,0,6,6,0,no
41,2,8,3,5,4,1,1,41,0,41,41,0,no
8,1,1,1,2,0,1,1,8,0,8,8,0,no
12,1,3,1,3,0,1,1,12,0,12,12,0,no
14,1,2,2,4,0,1,1,14,0,14,14,0,no
14,1,2,2,4,0,1,1,14,0,14,14,0,no
13,1,2,2,1,0,1,1,13,0,13,13,0,no
10,1,1,1,1,0,1,1,10,0,10,10,0,no
13,1,2,2,1,0,1,1,13,0,13,13,0,no
10,1,1,1,1,0,1,1,10,0,10,10,0,no
0,0,0,0,1,0,1,1,0,0,0,0,0,no
0,0,0,0,1,0,1,1,0,0,0,0,0,no
0,0,0,0,1,0,1,1,0,0,0,0,0,no
0,0,0,0,1,0,1,1,0,0,0,0,0,no
0,0,0,0,0,0,1,1,0,0,0,0,0,no
0,0,0,0,0,0,1,1,0,0,0,0,0,no
4,2,0,0,1,0,1,1,4,0,4,4,0,no
3,0,0,0,1,0,1,1,3,0,3,3,0,no
3,0,0,0,0,0,1,1,3,0,3,3,0,no
3,0,0,0,0,0,1,1,3,0,3,3,0,no
3,0,0,0,0,0,1,1,3,0,3,3,0,no
3,0,0,0,0,0,1,1,3,0,3,3,0,no
6,1,1,1,1,0,1,1,6,0,6,6,0,no
10,1,3,1,0,0,1,1,10,0,10,10,0,no
3,1,0,0,0,0,1,1,3,0,3,3,0,no
3,1,0,0,0,0,1,1,3,0,3,3,0,no
2,1,0,0,1,0,1,1,2,0,2,2,0,no
3,0,0,0,0,0,1,1,3,0,3,3,0,no
3,0,0,0,0,0,1,1,3,0,3,3,0,no
3,0,0,0,2,0,1,1,3,0,3,3,0,no
3,0,0,0,1,0,1,1,3,0,3,3,0,no
12,0,2,1,2,1,1,1,12,0,12,12,0,no
3,0,0,0,1,0,1,1,3,0,3,3,0,no
3,0,0,0,1,0,1,1,3,0,3,3,0,no
3,0,0,0,1,0,1,1,3,0,3,3,0,no
7,0,1,1,2,1,1,1,7,0,7,7,0,no
3,0,0,0,0,0,1,1,3,0,3,3,0,no
3,1,0,0,1,0,1,1,3,0,3,3,0,no
3,0,0,0,0,0,1,1,3,0,3,3,0,no
4,1,0,0,2,1,1,1,4,0,4,4,0,no
8,1,1,1,1,1,1,1,8,0,8,8,0,no
8,2,1,1,1,1,1,1,8,0,8,8,0,no
3,1,0,0,1,0,1,1,3,0,3,3,0,no
3,2,0,0,1,0,1,1,3,0,3,3,0,no
3,1,0,0,1,0,1,1,3,0,3,3,0,no
3,2,0,0,1,0,1,1,3,0,3,3,0,no
3,1,0,0,1,0,1,1,3,0,3,3,0,no
3,2,0,0,1,0,1,1,3,0,3,3,0,no
3,1,0,0,1,0,1,1,3,0,3,3,0,no
3,2,0,0,1,0,1,1,3,0,3,3,0,no
3,0,0,0,0,0,1,1,3,0,3,3,0,no
3,0,0,0,2,0,1,1,3,0,3,3,0,no
7,1,1,1,1,0,1,1,7,0,7,7,0,no
3,0,0,0,0,0,1,1,3,0,3,3,0,no
4,1,0,0,0,0,1,1,4,0,4,4,0,no
7,0,1,1,2,1,1,1,7,0,7,7,0,no
7,0,1,1,2,1,1,1,7,0,7,7,0,no
12,0,1,1,6,3,1,1,12,0,12,12,0,no
6,0,0,0,2,0,1,1,6,0,6,6,0,no
6,0,0,0,2,0,1,1,6,0,6,6,0,no
3,0,0,0,1,0,1,1,3,0,3,3,0,no
3,0,0,0,0,0,1,1,3,0,3,3,0,no
3,0,0,0,2,0,1,1,3,0,3,3,0,no
3,0,0,0,2,0,1,1,3,0,3,3,0,no
3,0,0,0,1,0,1,1,3,0,3,3,0,no
3,0,0,0,1,0,1,1,3,0,3,3,0,no
3,0,0,0,1,0,1,1,3,0,3,3,0,no
3,0,0,0,1,0,1,1,3,0,3,3,0,no
3,0,0,0,1,0,1,1,3,0,3,3,0,no
4,0,1,1,1,0,1,1,4,0,4,4,0,no
33,2,6,3,3,4,1,1,33,0,33,33,0,no
8,1,1,1,2,0,1,1,8,0,8,8,0,no
9,1,2,1,3,0,1,1,9,0,9,9,0,no
9,1,1,1,1,0,1,1,9,0,9,9,0,no
0,0,0,0,1,0,1,1,0,0,0,0,0,no
0,0,0,0,0,0,1,1,0,0,0,0,0,no
3,1,0,0,0,0,1,1,3,0,3,3,1,no
2,1,0,0,1,0,1,1,2,0,2,2,0,no
3,0,0,0,1,0,1,1,3,0,3,3,0,no
3,0,0,0,0,0,1,1,3,0,3,3,0,no
3,0,0,0,0,0,1,1,3,0,3,3,0,no
3,0,0,0,2,0,1,1,3,0,3,3,0,no
3,0,0,0,0,0,1,1,3,0,3,3,0,no
3,0,0,0,0,0,1,1,3,0,3,3,0,no
3,0,0,0,0,0,1,1,3,0,3,3,0,no
13,0,2,2,1,3,1,1,13,0,13,13,0,no
10,0,1,1,1,2,1,1,10,0,10,10,0,no
3,0,0,0,0,0,1,1,3,0,3,3,1,no
3,0,0,0,1,0,1,1,3,0,3,3,0,no
3,0,0,0,1,0,1,1,3,0,3,3,0,no
30,0,8,1,8,1,7,2,32,2,15,4.857143,1,no
3,0,0,0,1,0,3,1,5,2,3,2.333333,1,no
3,0,0,0,1,0,2,1,4,1,3,2.5,0,no
3,0,0,0,1,0,1,1,3,0,3,3,0,no
3,0,0,0,1,0,3,1,5,2,3,2.333333,1,no
3,0,0,0,1,0,2,1,4,1,3,2.5,0,no
3,0,0,0,1,0,1,1,3,0,3,3,1,no
3,0,0,0,1,0,2,1,4,1,3,2.5,0,no
9,0,0,0,2,0,7,2,10,1,3,1.571429,1,no
3,0,0,0,1,0,1,1,3,0,3,3,0,no
7,0,1,1,2,1,2,1,7,0,4,3.5,1,no
3,0,0,0,0,0,1,1,3,0,3,3,0,no
3,1,0,0,1,0,1,1,3,0,3,3,0,no
3,0,0,0,0,0,1,1,3,0,3,3,0,no
4,1,0,0,2,1,1,1,4,0,4,4,1,no
8,1,1,1,1,1,1,1,8,0,8,8,0,no
8,2,1,1,1,1,1,1,8,0,8,8,0,no
3,1,0,0,1,0,1,1,3,0,3,3,0,no
3,2,0,0,1,0,1,1,3,0,3,3,0,no
3,1,0,0,1,0,1,1,3,0,3,3,0,no
3,2,0,0,1,0,1,1,3,0,3,3,0,no
3,1,0,0,1,0,1,1,3,0,3,3,0,no
3,2,0,0,1,0,1,1,3,0,3,3,0,no
3,1,0,0,1,0,1,1,3,0,3,3,0,no
3,2,0,0,1,0,1,1,3,0,3,3,0,no
3,0,0,0,0,0,1,1,3,0,3,3,0,no
3,0,0,0,2,0,1,1,3,0,3,3,1,no
25,1,7,1,7,0,7,2,27,2,10,4.142857,1,no
3,0,0,0,0,0,2,1,3,0,2,1.5,1,no
4,1,0,0,0,0,1,1,4,0,4,4,1,no
7,0,1,1,2,1,2,1,7,0,6,3.5,1,no
7,0,1,1,2,1,2,1,7,0,6,3.5,1,no
40,0,8,1,12,3,7,2,41,1,8,6,1,no
22,0,1,1,9,0,7,2,23,1,7,3.428571,1,no
6,0,0,0,2,0,3,1,7,1,5,2.666667,1,no
6,0,0,0,1,0,2,1,7,1,6,4,0,no
6,0,0,0,1,0,1,1,6,0,6,6,0,no
6,0,0,0,1,0,3,1,7,1,5,2.666667,1,no
6,0,0,0,1,0,2,1,7,1,6,4,0,no
6,0,0,0,1,0,1,1,6,0,6,6,1,no
10,0,1,1,2,0,2,1,11,1,10,6,0,no
3,0,0,0,1,0,2,1,4,1,3,2.5,1,no
3,0,0,0,0,0,2,1,5,2,5,3.5,1,no
3,0,0,0,1,0,2,1,4,1,3,2.5,1,no
3,0,0,0,2,0,1,1,3,0,3,3,0,no
3,0,0,0,2,0,1,1,3,0,3,3,1,no
3,0,0,0,1,0,1,1,3,0,3,3,0,no
3,0,0,0,0,0,1,1,3,0,3,3,0,no
3,0,0,0,0,0,1,1,3,0,3,3,0,no
3,0,0,0,0,0,2,1,4,1,3,2.5,1,no
10,0,1,1,1,2,1,1,10,0,10,10,0,no
3,0,0,0,0,0,1,1,3,0,3,3,1,no
7,0,1,1,1,0,1,1,7,0,7,7,0,no
5,0,0,0,1,0,2,1,6,1,5,3.5,0,no
7,0,1,1,6,0,1,1,7,0,7,7,0,no
7,0,1,1,1,0,1,1,7,0,7,7,0,no
3,0,0,0,1,0,3,1,5,2,3,2.333333,1,no
3,0,0,0,1,0,2,1,4,1,3,2.5,0,no
3,0,0,0,1,0,1,1,3,0,3,3,0,no
3,0,0,0,1,0,3,1,5,2,3,2.333333,1,no
3,0,0,0,1,0,2,1,4,1,3,2.5,0,no
3,0,0,0,1,0,1,1,3,0,3,3,1,no
3,0,0,0,1,0,2,1,4,1,3,2.5,0,no
3,0,0,0,1,0,1,1,3,0,3,3,1,no
3,0,0,0,1,0,2,1,4,1,3,2.5,1,no
5,0,1,1,0,0,2,1,5,0,4,2.5,1,no
73,2,13,3,5,5,7,2,74,1,35,10.714286,1,no
8,1,1,1,2,0,1,1,8,0,8,8,0,no
27,1,8,1,3,0,6,2,28,1,12,4.833333,1,no
14,1,2,2,4,0,2,1,15,1,14,8,0,no
9,1,1,1,1,0,3,1,10,1,8,3.666667,1,no
6,1,0,0,0,0,2,1,7,1,6,4,0,no
6,1,0,0,0,0,1,1,6,0,6,6,0,no
6,1,0,0,0,0,3,1,7,1,5,2.666667,1,no
9,1,1,1,0,0,2,1,10,1,9,5.5,0,no
5,1,0,0,0,0,2,1,6,1,5,3.5,0,no
6,1,0,0,0,0,1,1,6,0,6,6,1,no
13,1,2,2,1,0,2,1,14,1,13,7.5,0,no
10,1,1,1,1,0,2,1,11,1,10,6,0,no
0,0,0,0,1,0,1,1,0,0,0,0,1,no
0,0,0,0,0,0,1,1,0,0,0,0,0,no
0,0,0,0,0,0,1,1,0,0,0,0,0,no
0,0,0,0,0,0,1,1,0,0,0,0,1,no
0,0,0,0,0,0,1,1,0,0,0,0,0,no
0,0,0,0,0,0,1,1,0,0,0,0,1,no
0,0,0,0,1,0,1,1,0,0,0,0,0,no
0,0,0,0,1,0,1,1,0,0,0,0,0,no
0,0,0,0,0,0,1,1,0,0,0,0,1,no
0,0,0,0,0,0,1,1,0,0,0,0,0,no
0,0,0,0,0,0,1,1,0,0,0,0,0,no
0,0,0,0,0,0,1,1,0,0,0,0,1,no
0,0,0,0,0,0,1,1,0,0,0,0,0,no
0,0,0,0,0,0,1,1,0,0,0,0,1,no
0,0,0,0,0,0,1,1,0,0,0,0,0,no
3,1,0,0,0,0,1,1,3,0,3,3,0,no
2,1,0,0,1,0,1,1,2,0,2,2,0,no
3,0,0,0,0,0,1,1,3,0,3,3,0,no
3,0,0,0,0,0,1,1,3,0,3,3,0,no
3,0,0,0,2,0,1,1,3,0,3,3,0,no
3,0,0,0,0,0,1,1,3,0,3,3,0,no
13,0,2,2,1,3,1,1,13,0,13,13,0,no
10,0,1,1,1,2,1,1,10,0,10,10,0,no
3,0,0,0,0,0,1,1,3,0,3,3,1,no
3,0,0,0,1,0,1,1,3,0,3,3,0,no
3,0,0,0,1,0,1,1,3,0,3,3,0,no
21,0,5,1,5,1,4,2,22,1,15,5.75,1,no
3,0,0,0,1,0,1,1,3,0,3,3,0,no
3,0,0,0,1,0,1,1,3,0,3,3,0,no
3,0,0,0,1,0,1,1,3,0,3,3,1,no
3,0,0,0,1,0,1,1,3,0,3,3,0,no
6,0,0,0,1,0,4,2,7,1,4,2,1,no
3,0,0,0,1,0,1,1,3,0,3,3,0,no
7,0,1,1,2,1,1,1,7,0,7,7,0,no
3,0,0,0,0,0,1,1,3,0,3,3,0,no
3,1,0,0,1,0,1,1,3,0,3,3,0,no
3,0,0,0,0,0,1,1,3,0,3,3,0,no
4,1,0,0,2,1,1,1,4,0,4,4,0,no
8,1,1,1,1,1,1,1,8,0,8,8,0,no
8,2,1,1,1,1,1,1,8,0,8,8,0,no
3,1,0,0,1,0,1,1,3,0,3,3,0,no
3,2,0,0,1,0,1,1,3,0,3,3,0,no
3,1,0,0,1,0,1,1,3,0,3,3,0,no
3,2,0,0,1,0,1,1,3,0,3,3,0,no
3,1,0,0,1,0,1,1,3,0,3,3,0,no
3,2,0,0,1,0,1,1,3,0,3,3,0,no
3,1,0,0,1,0,1,1,3,0,3,3,0,no
3,2,0,0,1,0,1,1,3,0,3,3,0,no
3,0,0,0,0,0,1,1,3,0,3,3,0,no
3,0,0,0,2,0,1,1,3,0,3,3,0,no
16,1,4,1,4,0,4,2,17,1,10,4.5,1,no
3,0,0,0,0,0,1,1,3,0,3,3,0,no
4,1,0,0,0,0,1,1,4,0,4,4,0,no
7,0,1,1,2,1,1,1,7,0,7,7,0,no
7,0,1,1,2,1,1,1,7,0,7,7,0,no
28,0,5,1,9,3,4,2,29,1,20,7.5,1,no
16,0,1,1,5,0,4,2,17,1,12,4.5,1,no
6,0,0,0,1,0,1,1,6,0,6,6,0,no
6,0,0,0,1,0,1,1,6,0,6,6,0,no
6,0,0,0,1,0,1,1,6,0,6,6,1,no
10,0,1,1,2,0,1,1,10,0,10,10,0,no
3,0,0,0,1,0,1,1,3,0,3,3,0,no
3,0,0,0,0,0,1,1,3,0,3,3,0,no
3,0,0,0,2,0,1,1,3,0,3,3,0,no
3,0,0,0,2,0,1,1,3,0,3,3,0,no
3,0,0,0,1,0,1,1,3,0,3,3,0,no
3,0,0,0,0,0,1,1,3,0,3,3,0,no
10,0,1,1,1,2,1,1,10,0,10,10,0,no
3,0,0,0,0,0,1,1,3,0,3,3,1,no
7,0,1,1,1,0,1,1,7,0,7,7,0,no
5,0,0,0,1,0,1,1,5,0,5,5,0,no
7,0,1,1,6,0,1,1,7,0,7,7,0,no
7,0,1,1,1,0,1,1,7,0,7,7,0,no
3,0,0,0,1,0,1,1,3,0,3,3,0,no
3,0,0,0,1,0,1,1,3,0,3,3,0,no
3,0,0,0,1,0,1,1,3,0,3,3,1,no
3,0,0,0,1,0,1,1,3,0,3,3,0,no
3,0,0,0,1,0,1,1,3,0,3,3,0,no
3,0,0,0,1,0,1,1,3,0,3,3,0,no
5,0,1,1,0,0,1,1,5,0,5,5,0,no
49,2,9,3,3,3,4,2,50,1,37,12.75,1,no
8,1,1,1,2,0,1,1,8,0,8,8,0,no
18,1,5,1,3,0,4,2,19,1,12,5,1,no
14,1,2,2,4,0,1,1,14,0,14,14,0,no
6,1,0,0,0,0,1,1,6,0,6,6,0,no
9,1,1,1,0,0,1,1,9,0,9,9,0,no
5,1,0,0,0,0,1,1,5,0,5,5,0,no
6,1,0,0,0,0,1,1,6,0,6,6,1,no
13,1,2,2,1,0,1,1,13,0,13,13,0,no
10,1,1,1,1,0,1,1,10,0,10,10,0,no
0,0,0,0,0,0,1,1,0,0,0,0,0,no
0,0,0,0,0,0,1,1,0,0,0,0,0,no
0,0,0,0,0,0,1,1,0,0,0,0,1,no
0,0,0,0,1,0,1,1,0,0,0,0,0,no
0,0,0,0,1,0,1,1,0,0,0,0,0,no
0,0,0,0,0,0,1,1,0,0,0,0,0,no
0,0,0,0,0,0,1,1,0,0,0,0,0,no
0,0,0,0,0,0,1,1,0,0,0,0,1,no
0,0,0,0,0,0,1,1,0,0,0,0,0,no
3,1,0,0,0,0,1,1,3,0,3,3,1,no
2,1,0,0,1,0,1,1,2,0,2,2,1,no
3,0,0,0,0,0,1,1,3,0,3,3,1,no
3,0,0,0,0,0,1,1,3,0,3,3,1,no
3,0,0,0,2,0,1,1,3,0,3,3,1,no
3,0,0,0,0,0,1,1,3,0,3,3,0,no
3,0,0,0,1,0,1,1,3,0,3,3,1,no
3,0,0,0,1,0,1,1,3,0,3,3,1,no
15,0,3,1,3,1,3,1,16,1,12,5.666667,1,no
3,0,0,0,1,0,2,1,4,1,3,2.5,1,no
3,0,0,0,1,0,2,1,4,1,3,2.5,1,no
4,0,0,0,1,0,2,1,4,0,3,2,1,no
3,0,0,0,1,0,1,1,3,0,3,3,1,no
15,0,3,1,2,1,2,1,15,0,8,7.5,1,no
3,0,0,0,0,0,1,1,3,0,3,3,1,no
3,1,0,0,1,0,1,1,3,0,3,3,1,no
3,0,0,0,0,0,1,1,3,0,3,3,1,no
4,1,0,0,2,1,1,1,4,0,4,4,1,no
8,1,1,1,1,1,1,1,8,0,8,8,1,no
8,2,1,1,1,1,1,1,8,0,8,8,1,no
3,1,0,0,1,0,1,1,3,0,3,3,1,no
3,2,0,0,1,0,1,1,3,0,3,3,1,no
3,1,0,0,1,0,1,1,3,0,3,3,1,no
3,2,0,0,1,0,1,1,3,0,3,3,1,no
3,1,0,0,1,0,1,1,3,0,3,3,1,no
3,2,0,0,1,0,1,1,3,0,3,3,1,no
3,1,0,0,1,0,1,1,3,0,3,3,1,no
3,2,0,0,1,0,1,1,3,0,3,3,1,no
3,0,0,0,0,0,1,1,3,0,3,3,1,no
3,0,0,0,2,0,1,1,3,0,3,3,1,no
10,1,2,1,2,0,3,1,11,1,7,4,1,no
3,0,0,0,0,0,2,1,3,0,2,1.5,1,no
4,1,0,0,0,0,1,1,4,0,4,4,1,no
7,0,1,1,2,1,2,1,7,0,6,3.5,1,no
7,0,1,1,2,1,2,1,7,0,6,3.5,1,no
20,0,3,1,7,3,2,1,20,0,12,10,1,no
12,0,1,1,3,0,2,1,12,0,7,6,1,no
6,0,0,0,1,0,2,1,6,0,5,3,1,no
10,0,1,1,2,0,2,1,10,0,5,5,1,no
3,0,0,0,1,0,2,1,4,1,3,2.5,1,no
3,0,0,0,0,0,2,1,5,2,5,3.5,1,no
3,0,0,0,2,0,1,1,3,0,3,3,1,no
3,0,0,0,2,0,1,1,3,0,3,3,1,no
3,0,0,0,1,0,1,1,3,0,3,3,1,no
3,0,0,0,0,0,2,1,4,1,3,2.5,1,no
7,0,1,1,1,0,2,1,7,0,4,3.5,1,no
5,0,0,0,1,0,1,1,5,0,5,5,1,no
7,0,1,1,6,0,1,1,7,0,7,7,1,no
7,0,1,1,1,0,1,1,7,0,7,7,1,no
3,0,0,0,1,0,2,1,4,1,3,2.5,1,no
3,0,0,0,1,0,2,1,4,1,3,2.5,1,no
3,0,0,0,1,0,1,1,3,0,3,3,1,no
9,0,2,1,2,0,2,1,9,0,6,4.5,1,no
5,0,1,1,0,0,1,1,5,0,5,5,1,no
37,2,7,3,3,3,3,1,37,0,29,12.333333,1,no
8,1,1,1,2,0,1,1,8,0,8,8,1,no
12,1,3,1,3,0,2,1,12,0,9,6,1,no
14,1,2,2,4,0,2,1,14,0,9,7,1,no
6,1,0,0,0,0,2,1,6,0,5,3,1,no
13,1,2,2,1,0,2,1,13,0,8,6.5,1,no
10,1,1,1,1,0,2,1,10,0,5,5,1,no
0,0,0,0,0,0,1,1,0,0,0,0,1,no
0,0,0,0,1,0,1,1,0,0,0,0,1,no
0,0,0,0,1,0,1,1,0,0,0,0,1,no
0,0,0,0,0,0,1,1,0,0,0,0,1,no
0,0,0,0,0,0,1,1,0,0,0,0,1,no
3,1,0,0,0,0,1,1,3,0,3,3,1,no
2,1,0,0,1,0,1,1,2,0,2,2,1,no
3,0,0,0,0,0,1,1,3,0,3,3,1,no
3,0,0,0,0,0,1,1,3,0,3,3,1,no
3,0,0,0,2,0,1,1,3,0,3,3,1,no
12,0,2,1,2,1,2,1,13,1,12,7,1,no
3,0,0,0,0,0,1,1,3,0,3,3,1,no
3,0,0,0,1,0,2,1,4,1,3,2.5,1,no
3,0,0,0,0,0,2,1,3,0,2,1.5,1,no
3,0,0,0,1,0,1,1,3,0,3,3,1,no
11,0,2,1,2,1,2,1,11,0,6,5.5,1,no
3,0,0,0,0,0,1,1,3,0,3,3,1,no
3,1,0,0,1,0,1,1,3,0,3,3,1,no
3,0,0,0,0,0,1,1,3,0,3,3,1,no
4,1,0,0,2,1,1,1,4,0,4,4,1,no
8,1,1,1,1,1,1,1,8,0,8,8,1,no
8,2,1,1,1,1,1,1,8,0,8,8,1,no
3,1,0,0,1,0,1,1,3,0,3,3,1,no
3,2,0,0,1,0,1,1,3,0,3,3,1,no
3,1,0,0,1,0,1,1,3,0,3,3,1,no
3,2,0,0,1,0,1,1,3,0,3,3,1,no
3,1,0,0,1,0,1,1,3,0,3,3,1,no
3,2,0,0,1,0,1,1,3,0,3,3,1,no
3,1,0,0,1,0,1,1,3,0,3,3,1,no
3,2,0,0,1,0,1,1,3,0,3,3,1,no
3,0,0,0,0,0,1,1,3,0,3,3,1,no
3,0,0,0,2,0,1,1,3,0,3,3,1,no
7,1,1,1,1,0,2,1,8,1,7,4.5,1,no
3,0,0,0,0,0,2,1,3,0,2,1.5,1,no
4,1,0,0,0,0,1,1,4,0,4,4,1,no
7,0,1,1,2,1,2,1,7,0,6,3.5,1,no
7,0,1,1,2,1,2,1,7,0,6,3.5,1,no
12,0,1,1,6,3,2,1,12,0,8,6,1,no
6,0,0,0,1,0,2,1,7,1,7,4,1,no
6,0,0,0,1,0,2,1,6,0,5,3,1,no
3,0,0,0,1,0,2,1,4,1,3,2.5,1,no
3,0,0,0,0,0,2,1,5,2,5,3.5,1,no
3,0,0,0,2,0,1,1,3,0,3,3,1,no
3,0,0,0,2,0,1,1,3,0,3,3,1,no
3,0,0,0,1,0,1,1,3,0,3,3,1,no
3,0,0,0,0,0,2,1,4,1,3,2.5,1,no
3,0,0,0,1,0,2,1,4,1,3,2.5,1,no
3,0,0,0,1,0,1,1,3,0,3,3,1,no
6,0,1,1,2,0,2,1,6,0,3,3,1,no
4,0,1,1,1,0,1,1,4,0,4,4,1,no
27,2,5,3,1,2,2,1,27,0,24,13.5,1,no
8,1,1,1,2,0,1,1,8,0,8,8,1,no
9,1,2,1,3,0,1,1,9,0,9,9,1,no
9,1,1,1,0,0,2,1,9,0,8,4.5,1,no
0,0,0,0,0,0,1,1,0,0,0,0,1,no
0,0,0,0,0,0,1,1,0,0,0,0,1,no
15,1,2,2,1,6,1,1,15,0,15,15,0,no
7,1,1,1,0,2,1,1,7,0,7,7,0,no
14,1,2,2,1,6,1,1,14,0,14,14,0,no
19,2,5,2,0,3,1,1,19,0,19,19,0,no
14,2,4,2,1,3,1,1,14,0,14,14,0,no
7,1,1,1,0,2,1,1,7,0,7,7,0,no
3,2,0,0,0,0,1,1,3,0,3,3,0,no
6,2,0,0,0,1,1,1,6,0,6,6,0,no
13,1,1,1,0,3,1,1,13,0,13,13,0,no
16,3,4,2,1,5,1,1,16,0,16,16,0,no
3,1,0,0,0,0,1,1,3,0,3,3,0,no
3,2,0,0,0,0,1,1,3,0,3,3,0,no
6,3,0,0,1,3,1,1,6,0,6,6,0,no
3,1,0,0,0,0,1,1,3,0,3,3,0,no
3,2,0,0,0,0,1,1,3,0,3,3,0,no
7,1,1,1,0,0,1,1,7,0,7,7,0,no
3,1,0,0,0,0,1,1,3,0,3,3,0,no
9,1,1,1,0,1,1,1,9,0,9,9,0,no
10,1,2,1,0,1,1,1,10,0,10,10,0,no
14,1,2,1,0,1,1,1,14,0,14,14,0,no
5,1,0,0,0,1,1,1,5,0,5,5,0,no
15,2,1,1,1,0,4,2,20,5,12,6.25,1,no
4,3,0,0,0,1,1,1,4,0,4,4,1,no
8,0,0,0,0,0,2,1,8,0,4,4,0,no
8,0,0,0,0,0,1,1,8,0,8,8,1,no
24,0,4,3,0,10,4,2,25,1,19,6.5,1,no
3,0,0,0,0,0,1,1,3,0,3,3,0,no
3,0,0,0,0,0,1,1,3,0,3,3,0,no
3,0,0,0,0,0,2,1,4,1,3,2.5,1,no
3,0,0,0,0,0,1,1,3,0,3,3,0,no
3,0,0,0,0,0,1,1,3,0,3,3,1,no
22,2,2,1,0,1,4,1,23,1,13,6,0,no
69,1,12,3,2,16,3,1,69,0,38,23,1,no
22,1,2,1,0,1,2,1,22,0,12,11,0,no
22,1,2,1,0,3,4,1,30,8,20,9.5,0,no
3,0,0,0,0,0,2,1,4,1,3,2.5,0,no
3,0,0,0,0,0,1,1,3,0,3,3,0,no
22,1,2,1,0,1,2,1,22,0,17,11,0,no
3,2,0,0,0,0,1,1,3,0,3,3,0,no
3,2,0,0,0,0,1,1,3,0,3,3,0,no
3,2,0,0,0,0,1,1,3,0,3,3,0,no
3,2,0,0,0,0,1,1,3,0,3,3,0,no
7,2,1,1,0,2,2,1,7,0,4,3.5,0,no
7,2,1,1,0,0,1,1,7,0,7,7,0,no
7,2,1,1,0,0,1,1,7,0,7,7,0,no
7,2,1,1,0,0,1,1,7,0,7,7,0,no
3,2,0,0,0,0,1,1,3,0,3,3,0,no
7,2,1,1,0,0,1,1,7,0,7,7,0,no
4,2,0,0,0,0,1,1,4,0,4,4,0,no
5,0,0,0,0,1,1,1,5,0,5,5,0,no
5,1,1,1,0,0,2,1,5,0,3,2.5,0,no
8,0,2,2,0,0,1,1,8,0,8,8,0,no
6,1,0,0,1,0,1,1,6,0,6,6,0,no
3,0,0,0,0,0,1,1,3,0,3,3,0,no
6,1,0,0,1,0,1,1,6,0,6,6,0,no
3,1,0,0,0,0,1,1,3,0,3,3,0,no
14,1,2,2,0,4,1,1,14,0,14,14,0,no
3,0,0,0,0,0,1,1,3,0,3,3,0,no
27,0,1,1,0,0,2,1,27,0,26,13.5,1,no
6,3,0,0,0,0,1,1,6,0,6,6,0,no
3,1,0,0,1,0,1,1,3,0,3,3,0,no
3,0,0,0,0,0,1,1,3,0,3,3,0,no
3,0,0,0,0,0,1,1,3,0,3,3,0,no
3,0,0,0,0,0,1,1,3,0,3,3,0,no
7,0,1,1,0,1,1,1,7,0,7,7,0,no
47,1,7,2,1,5,4,1,47,0,44,11.75,1,no
3,2,0,0,0,0,1,1,3,0,3,3,0,no
23,0,0,0,0,2,2,1,23,0,22,11.5,1,no
15,0,3,2,1,1,2,1,16,1,15,8.5,1,no
8,1,1,1,1,0,1,1,8,0,8,8,0,no
3,0,0,0,0,0,1,1,3,0,3,3,0,no
5,0,0,0,0,1,1,1,5,0,5,5,0,no
4,1,0,0,0,1,1,1,4,0,4,4,0,no
5,1,1,1,0,0,1,1,5,0,5,5,0,no
39,1,7,3,0,7,3,2,42,3,41,15,1,no
38,0,6,3,2,5,3,1,103,65,87,56,1,no
9,0,1,1,0,1,1,1,9,0,9,9,0,no
14,1,2,1,0,2,1,1,14,0,14,14,0,no
4,5,0,0,0,0,1,1,4,0,4,4,0,no
3,3,0,0,0,0,1,1,3,0,3,3,0,no
24,1,3,1,0,7,3,1,25,1,23,8.666667,0,no
15,1,2,1,0,4,1,1,15,0,15,15,0,no
13,1,1,0,0,4,3,1,15,2,13,5.666667,0,no
15,1,3,1,0,1,2,1,23,8,23,15.5,1,no
11,1,2,1,1,1,2,1,12,1,11,6.5,0,no
10,1,2,1,0,0,1,1,10,0,10,10,0,no
7,1,0,0,0,0,2,1,8,1,7,4.5,1,no
18,1,3,1,0,2,1,1,18,0,18,18,1,no
15,1,3,2,0,3,1,1,15,0,15,15,0,no
9,1,2,2,0,1,1,1,9,0,9,9,0,no
0,1,0,0,0,0,1,1,0,0,0,0,0,no
2,0,0,0,1,0,1,1,2,0,2,2,0,no
3,0,0,0,0,0,1,1,3,0,3,3,0,no
3,1,0,0,0,0,1,1,3,0,3,3,0,no
3,0,0,0,0,0,1,1,3,0,3,3,0,no
3,0,0,0,0,0,1,1,3,0,3,3,0,no
3,1,0,0,0,0,1,1,3,0,3,3,0,no
9,1,1,1,0,1,1,1,9,0,9,9,0,no
24,1,4,3,0,3,1,1,24,0,24,24,0,no
6,1,1,1,0,0,1,1,6,0,6,6,0,no
23,1,4,2,0,5,1,1,23,0,23,23,0,no
61,1,7,3,3,13,4,2,68,7,66,18.75,1,no
7,5,1,1,0,0,2,1,10,3,10,6.5,1,no
14,1,2,1,0,2,1,1,14,0,14,14,0,no
23,1,4,2,1,1,1,1,23,0,23,23,0,no
30,1,5,3,0,11,2,2,30,0,29,15,1,no
10,1,3,2,1,0,1,1,10,0,10,10,0,no
24,1,5,3,0,1,1,1,24,0,24,24,0,no
7,0,1,1,0,2,2,1,8,1,7,4.5,0,no
21,0,4,3,0,4,2,1,21,0,16,10.5,0,no
44,1,8,4,0,5,2,1,44,0,43,22,0,no
16,1,2,1,0,2,1,1,16,0,16,16,0,no
3,1,0,0,0,0,1,1,3,0,3,3,0,no
17,3,3,2,1,3,2,2,18,1,17,9.5,1,no
9,4,2,2,1,1,2,2,9,0,8,4.5,1,no
16,3,4,3,1,3,2,1,16,0,13,8,0,no
3,3,0,0,0,0,1,1,3,0,3,3,0,no
6,4,0,0,0,0,1,1,6,0,6,6,0,no
33,0,8,3,1,4,2,1,34,1,33,17.5,1,no
3,0,1,0,0,0,1,1,3,0,3,3,0,no
43,1,6,4,1,7,1,1,43,0,43,43,0,no
17,0,4,2,0,4,3,1,19,2,18,7,1,no
8,0,1,1,0,1,2,1,21,13,21,17,1,no
9,0,1,1,2,2,2,2,10,1,9,5.5,1,no
59,1,12,5,0,8,1,1,59,0,59,59,1,no
18,0,4,2,0,1,1,1,18,0,18,18,0,no
11,1,1,1,0,1,1,1,11,0,11,11,0,no
11,1,1,1,0,1,1,1,11,0,11,11,0,no
42,1,6,4,1,7,1,1,42,0,42,42,0,no
4,1,0,0,0,0,1,1,4,0,4,4,0,no
0,1,0,0,0,0,1,1,0,0,0,0,0,no
10,0,0,0,0,2,1,1,10,0,10,10,0,no
10,2,1,1,2,1,2,2,11,1,10,6,1,no
0,0,0,0,0,0,1,1,0,0,0,0,0,no
5,2,0,0,0,0,1,1,5,0,5,5,0,no
15,2,3,1,1,1,2,2,16,1,15,8.5,1,no
6,1,0,0,0,1,2,2,7,1,6,4,0,no
26,1,1,1,0,11,3,3,28,2,26,10,1,no
4,1,0,0,0,1,1,1,4,0,4,4,0,no
5,0,0,0,0,0,1,1,5,0,5,5,0,no
3,5,0,0,0,0,1,1,3,0,3,3,0,no
11,1,1,1,0,5,2,2,12,1,11,6.5,1,no
18,1,1,1,0,8,2,2,19,1,18,10,1,no
4,1,0,0,0,1,1,1,4,0,4,4,0,no
3,0,0,0,0,0,2,2,4,1,3,2.5,0,no
3,4,0,0,0,0,1,1,3,0,3,3,0,no
10,1,0,0,0,1,1,1,10,0,10,10,0,no
7,0,0,0,0,1,1,1,7,0,7,7,0,no
3,1,0,0,0,0,1,1,3,0,3,3,0,no
17,2,1,1,0,5,1,1,17,0,17,17,0,no
7,1,1,1,0,1,2,2,11,4,11,7.5,1,no
7,0,1,1,0,0,1,1,7,0,7,7,0,no
3,0,0,0,0,0,1,1,3,0,3,3,0,no
3,0,0,0,0,0,1,1,3,0,3,3,0,no
7,0,1,1,0,0,1,1,7,0,7,7,0,no
3,0,0,0,0,0,1,1,3,0,3,3,1,no
3,0,0,0,0,0,1,1,3,0,3,3,0,no
3,0,0,0,0,0,1,1,3,0,3,3,0,no
10,0,2,2,1,2,1,1,10,0,10,10,0,no
3,0,0,0,0,0,1,1,3,0,3,3,0,no
3,0,0,0,0,0,1,1,3,0,3,3,1,no
3,0,0,0,0,0,1,1,3,0,3,3,0,no
3,0,0,0,0,0,1,1,3,0,3,3,0,no
3,0,0,0,0,0,1,1,3,0,3,3,0,no
3,0,0,0,0,0,1,1,3,0,3,3,0,no
3,0,0,0,0,0,1,1,3,0,3,3,0,no
3,0,0,0,0,0,1,1,3,0,3,3,0,no
3,0,0,0,0,0,1,1,3,0,3,3,0,no
3,0,0,0,0,0,1,1,3,0,3,3,0,no
3,0,0,0,0,0,1,1,3,0,3,3,0,no
3,0,0,0,0,0,1,1,3,0,3,3,0,no
6,0,1,1,0,0,1,1,6,0,6,6,0,no
3,0,0,0,0,0,1,1,3,0,3,3,0,no
3,0,0,0,0,0,1,1,3,0,3,3,1,no
3,0,0,0,0,0,1,1,3,0,3,3,0,no
3,0,0,0,0,0,1,1,3,0,3,3,0,no
3,0,0,0,0,0,2,2,4,1,3,2.5,1,no
3,0,0,0,0,0,1,1,3,0,3,3,0,no
6,0,1,1,0,0,1,1,6,0,6,6,0,no
3,0,0,0,0,0,1,1,3,0,3,3,0,no
3,0,0,0,0,0,1,1,3,0,3,3,0,no
3,0,0,0,0,0,1,1,3,0,3,3,1,no
3,0,0,0,0,0,1,1,3,0,3,3,0,no
3,0,0,0,0,0,1,1,3,0,3,3,0,no
6,0,1,1,0,0,1,1,6,0,6,6,0,no
3,0,0,0,0,0,1,1,3,0,3,3,0,no
7,0,1,1,1,1,3,2,8,1,4,3,1,no
3,1,0,0,0,0,1,1,3,0,3,3,0,no
3,1,0,0,0,0,1,1,3,0,3,3,0,no
3,0,0,0,0,0,1,1,3,0,3,3,0,no
3,1,0,0,0,0,1,1,3,0,3,3,0,no
3,0,0,0,0,0,1,1,3,0,3,3,0,no
3,2,0,0,0,0,1,1,3,0,3,3,0,no
3,1,0,0,0,0,1,1,3,0,3,3,0,no
3,0,0,0,0,0,1,1,3,0,3,3,0,no
3,0,0,0,0,0,1,1,3,0,3,3,0,no
3,0,0,0,0,0,1,1,3,0,3,3,0,no
3,0,0,0,0,0,1,1,3,0,3,3,0,no
4,1,0,0,0,0,1,1,4,0,4,4,0,no
5,0,0,0,0,0,1,1,5,0,5,5,0,no
3,0,0,0,0,0,1,1,3,0,3,3,0,no
7,0,1,1,0,0,1,1,7,0,7,7,0,no
8,0,1,1,0,1,1,1,8,0,8,8,0,no
4,1,0,0,0,0,1,1,4,0,4,4,0,no
18,0,6,3,2,2,2,2,18,0,15,9,0,yes
4,2,0,0,1,0,3,3,6,2,4,2.666667,1,no
3,1,0,0,0,0,1,1,3,0,3,3,0,no
3,1,0,0,0,0,1,1,3,0,3,3,0,no
7,1,2,1,2,1,1,1,7,0,7,7,0,no
14,2,2,1,1,2,1,1,14,0,14,14,0,no
16,3,0,0,0,0,1,1,16,0,16,16,0,no
4,2,0,0,0,0,1,1,4,0,4,4,0,no
4,2,0,0,0,0,1,1,4,0,4,4,0,no
3,1,0,0,0,0,1,1,3,0,3,3,0,no
4,0,0,0,0,0,1,1,4,0,4,4,0,no
0,0,0,0,0,0,1,1,0,0,0,0,0,no
3,1,0,0,0,0,1,1,3,0,3,3,0,no
3,1,0,0,0,0,1,1,3,0,3,3,0,no
3,1,0,0,0,0,1,1,3,0,3,3,0,no
3,0,0,0,0,0,1,1,3,0,3,3,0,no
8,1,1,1,0,1,1,1,8,0,8,8,0,no
3,0,0,0,0,0,1,1,3,0,3,3,0,no
3,0,0,0,0,0,1,1,3,0,3,3,1,no
12,1,2,1,0,1,1,1,12,0,12,12,0,no
5,2,0,0,0,1,1,1,5,0,5,5,0,no
3,0,0,0,0,0,1,1,3,0,3,3,1,no
0,0,0,0,1,0,1,1,0,0,0,0,0,no
0,0,0,0,1,0,1,1,0,0,0,0,0,no
0,0,0,0,1,0,1,1,0,0,0,0,0,no
0,0,0,0,1,0,1,1,0,0,0,0,0,no
0,2,0,0,1,0,1,1,0,0,0,0,0,no
0,3,0,0,1,0,1,1,0,0,0,0,0,no
0,0,0,0,1,0,1,1,0,0,0,0,1,no
0,8,0,0,1,0,1,1,0,0,0,0,1,no
0,0,0,0,1,0,1,1,0,0,0,0,1,no
0,5,0,0,1,0,1,1,0,0,0,0,0,no
17,3,2,1,0,1,1,1,17,0,17,17,0,no
4,2,0,0,0,1,1,1,4,0,4,4,0,no
3,1,0,0,0,0,2,1,13,10,13,11.5,0,no
8,2,0,0,0,0,1,1,8,0,8,8,0,no
3,2,0,0,0,0,1,1,3,0,3,3,0,no
3,1,0,0,0,0,1,1,3,0,3,3,0,no
7,1,1,1,0,1,1,1,7,0,7,7,0,no
7,3,1,1,0,1,1,1,7,0,7,7,0,no
3,3,0,0,0,0,2,2,4,1,3,2.5,0,no
3,1,0,0,0,0,1,1,3,0,3,3,0,no
17,4,4,1,0,2,2,2,17,0,14,8.5,1,no
5,0,1,1,0,1,2,2,6,1,6,3.5,1,no
3,1,0,0,0,0,3,3,7,4,6,3.666667,1,no
5,0,1,1,0,1,2,1,5,0,3,2.5,1,no
4,8,0,0,0,1,2,1,5,1,4,3,1,no
5,0,1,1,0,1,2,2,5,0,3,2.5,0,no
3,5,0,0,0,0,4,2,10,7,8,4.25,1,no
5,0,1,1,0,1,2,2,6,1,5,3.5,1,no
2,2,0,0,1,0,1,1,2,0,2,2,0,no
2,2,0,0,1,0,1,1,2,0,2,2,0,no
19,8,2,2,0,0,1,1,19,0,19,19,1,no
9,0,0,1,0,0,1,1,9,0,9,9,0,no
3,0,0,0,0,0,1,1,3,0,3,3,0,no
8,0,0,1,0,0,3,2,15,7,10,7.333333,0,no
17,0,2,1,1,0,2,1,17,0,15,8.5,1,no
3,0,0,0,0,0,1,1,3,0,3,3,0,no
3,0,0,0,0,0,1,1,3,0,3,3,0,no
3,0,0,0,0,0,1,1,3,0,3,3,0,no
3,0,0,0,0,0,1,1,3,0,3,3,0,no
8,0,0,1,0,0,2,2,8,0,5,4,0,no
22,1,4,1,1,0,2,1,23,1,22,12,0,no
16,2,2,1,0,1,6,2,19,3,14,3.666667,1,no
9,0,2,1,1,0,2,2,10,1,9,5.5,1,no
20,0,2,2,3,2,6,3,22,2,9,4,1,no
3,0,0,0,0,0,3,3,5,2,3,2.333333,1,no
6,2,1,1,0,0,2,2,7,1,6,4,0,no
3,2,0,0,0,0,2,2,3,0,2,1.5,0,no
15,0,2,1,0,1,4,2,16,1,12,4.25,1,no
3,1,0,0,0,0,1,1,3,0,3,3,0,no
30,1,3,2,0,1,3,1,30,0,12,10,0,no
10,0,0,0,0,1,2,2,10,0,8,5,1,no
3,0,0,0,0,0,1,1,3,0,3,3,0,no
3,0,0,0,0,0,1,1,3,0,3,3,0,no
2,0,0,0,0,0,1,1,2,0,2,2,0,no
2,0,0,0,0,0,1,1,2,0,2,2,0,no
3,0,0,0,0,0,1,1,3,0,3,3,0,no
0,0,0,0,1,0,1,1,0,0,0,0,0,no
5,3,0,0,0,0,1,1,5,0,5,5,0,no
22,0,2,1,0,3,1,1,22,0,22,22,0,no
4,1,0,0,0,0,1,1,4,0,4,4,0,no
13,1,2,1,0,0,1,1,13,0,13,13,0,no
5,1,1,1,0,0,1,1,5,0,5,5,0,no
6,0,0,0,1,0,1,1,6,0,6,6,0,no
6,1,1,1,0,0,2,1,7,1,7,4,1,no
11,0,2,2,0,2,1,1,11,0,11,11,0,no
20,0,4,3,0,1,1,1,20,0,20,20,0,no
3,0,0,0,0,0,1,1,3,0,3,3,0,no
3,0,0,0,0,0,1,1,3,0,3,3,0,no
5,0,0,0,0,0,1,1,5,0,5,5,0,no
4,2,2,0,1,1,1,1,4,0,4,4,0,no
2,0,0,0,0,0,1,1,2,0,2,2,0,no
3,0,0,0,0,0,1,1,3,0,3,3,0,no
3,0,0,0,0,0,1,1,3,0,3,3,0,no
6,5,0,0,0,0,1,1,6,0,6,6,1,no
7,0,1,1,0,1,4,3,12,5,8,4.25,1,no
3,0,0,0,0,0,1,1,3,0,3,3,0,no
4,2,0,0,0,0,1,1,4,0,4,4,0,no
18,2,1,1,0,0,2,2,18,0,16,9,0,no
0,2,0,0,0,0,1,1,0,0,0,0,0,no
4,2,0,0,0,0,2,2,4,0,3,2,0,no
8,2,1,1,0,0,2,2,8,0,7,4,0,no
0,1,0,0,1,0,1,1,0,0,0,0,0,no
7,5,0,0,0,0,1,1,7,0,7,7,0,no
34,2,1,1,0,4,1,1,34,0,34,34,0,no
4,2,0,0,0,0,1,1,4,0,4,4,0,no
15,2,0,0,0,0,1,1,15,0,15,15,0,no
4,2,0,0,0,0,1,1,4,0,4,4,0,no
5,2,0,0,0,0,1,1,5,0,5,5,0,no
4,3,0,0,0,0,1,1,4,0,4,4,0,no
9,2,1,1,0,1,2,2,9,0,8,4.5,0,no
3,2,0,0,0,0,2,2,3,0,2,1.5,0,no
3,2,0,0,1,0,2,2,3,0,2,1.5,0,no
0,2,0,0,2,0,1,1,0,0,0,0,0,no
3,1,0,0,0,0,1,1,3,0,3,3,0,no
3,0,0,0,0,0,1,1,3,0,3,3,0,no
3,0,0,0,0,0,2,1,4,1,3,2.5,0,no
3,0,0,0,0,0,1,1,3,0,3,3,0,no
0,0,0,0,1,0,1,1,0,0,0,0,0,no
5,3,0,0,0,0,2,2,5,0,4,2.5,0,no
8,2,1,1,0,2,1,1,8,0,8,8,0,no
22,2,1,1,0,3,4,3,24,2,18,6.5,1,no
4,2,0,0,0,0,2,2,4,0,3,2,0,no
4,2,0,0,0,0,1,1,4,0,4,4,0,no
8,6,0,0,0,0,1,1,8,0,8,8,0,no
90,2,8,2,4,20,10,3,113,23,42,13.6,1,no
5,2,0,0,1,0,3,2,5,0,3,1.666667,0,no
59,2,6,2,2,14,7,1,81,22,46,14.714286,1,no
2,2,0,0,0,0,1,1,2,0,2,2,1,no
7,2,0,0,1,2,1,1,7,0,7,7,1,no
5,0,0,0,0,0,3,2,6,1,4,2.333333,0,no
5,1,1,1,0,0,1,1,5,0,5,5,0,no
15,1,3,3,1,3,3,2,15,0,9,5,0,no
3,0,0,0,0,0,1,1,3,0,3,3,0,no
3,0,0,0,0,0,1,1,3,0,3,3,0,no
42,3,9,5,3,5,2,1,42,0,27,21,0,no
15,2,4,3,2,1,2,1,15,0,10,7.5,0,no
3,1,0,0,0,0,1,1,3,0,3,3,0,no
7,1,1,1,0,0,1,1,7,0,7,7,0,no
0,1,0,0,1,0,1,1,0,0,0,0,0,no
7,5,0,0,0,0,1,1,7,0,7,7,0,no
34,2,1,1,0,4,4,3,35,1,20,9,1,no
4,2,0,0,0,0,2,2,4,0,3,2,0,no
15,2,0,0,0,0,4,3,16,1,10,4.25,1,no
4,2,0,0,0,0,1,1,4,0,4,4,0,no
5,2,0,0,0,0,1,1,5,0,5,5,0,no
0,1,0,0,1,0,1,1,0,0,0,0,0,no
0,0,0,0,1,0,1,1,0,0,0,0,0,no
3,0,0,0,0,0,1,1,3,0,3,3,0,no
3,0,0,0,0,0,1,1,3,0,3,3,0,no
3,1,0,0,0,0,1,1,3,0,3,3,0,no
4,2,0,0,0,1,1,1,4,0,4,4,1,no
7,1,1,1,1,1,1,1,7,0,7,7,0,no
3,2,0,0,0,0,1,1,3,0,3,3,0,no
3,0,0,0,0,0,1,1,3,0,3,3,0,no
3,0,0,0,0,0,1,1,3,0,3,3,0,no
21,2,3,1,1,5,2,2,22,1,21,11.5,1,no
5,2,0,0,0,2,2,2,6,1,5,3.5,1,no
3,0,0,0,0,0,1,1,3,0,3,3,0,no
22,3,4,2,2,4,1,1,22,0,22,22,1,no
0,2,0,0,0,0,1,1,0,0,0,0,1,no
0,0,0,0,0,0,1,1,0,0,0,0,0,no
0,0,0,0,0,0,1,1,0,0,0,0,0,no
0,3,0,0,0,0,1,1,0,0,0,0,0,no
35,2,7,3,2,5,2,1,53,18,53,35.5,1,no
0,0,0,0,0,0,1,1,0,0,0,0,0,no
0,0,0,0,0,0,1,1,0,0,0,0,0,no
0,0,0,0,0,0,1,1,0,0,0,0,0,no
0,0,0,0,0,0,1,1,0,0,0,0,0,no
18,2,2,1,0,1,1,1,18,0,18,18,0,no
3,0,0,0,0,0,1,1,3,0,3,3,0,no
46,0,5,2,0,5,1,1,46,0,46,46,0,no
29,3,6,2,0,0,1,1,29,0,29,29,0,no
11,4,2,2,0,1,1,1,11,0,11,11,0,no
4,5,0,0,1,0,1,1,4,0,4,4,0,no
3,0,0,0,0,0,1,1,3,0,3,3,0,no
3,0,0,0,0,0,1,1,3,0,3,3,0,no
3,0,0,0,0,0,1,1,3,0,3,3,0,no
19,0,4,1,0,0,1,1,19,0,19,19,0,no
14,0,3,2,0,0,1,1,14,0,14,14,1,no
4,0,0,0,0,1,1,1,4,0,4,4,1,no
3,0,0,0,0,0,1,1,3,0,3,3,1,no
5,3,0,0,0,1,1,1,5,0,5,5,0,no
4,2,0,0,0,0,1,1,4,0,4,4,0,no
2,0,0,0,0,0,1,1,2,0,2,2,0,no
20,5,3,2,0,2,1,1,20,0,20,20,0,no
21,5,3,3,1,1,1,1,21,0,21,21,0,no
3,2,0,0,0,0,1,1,3,0,3,3,0,no
3,2,0,0,0,0,1,1,3,0,3,3,0,no
3,0,0,0,0,0,1,1,3,0,3,3,0,no
35,4,5,2,0,6,1,1,35,0,35,35,0,no
15,3,1,1,0,3,1,1,15,0,15,15,0,no
40,6,5,2,0,9,1,1,40,0,40,40,0,no
3,6,0,0,0,0,1,1,3,0,3,3,0,no
10,1,2,1,0,1,2,2,11,1,10,6,1,no
23,6,4,3,0,2,1,1,23,0,23,23,0,no
18,1,2,1,0,7,1,1,18,0,18,18,0,no
29,3,5,2,0,5,1,1,29,0,29,29,0,no
15,3,3,3,1,0,1,1,15,0,15,15,0,no
13,3,3,2,0,0,1,1,16,0,16,16,0,no
16,3,4,3,0,0,1,1,16,0,16,16,0,no
8,3,1,1,0,1,1,1,8,0,8,8,0,no
30,3,4,2,0,8,1,1,30,0,30,30,0,no
3,1,0,0,0,0,1,1,3,0,3,3,0,no
2,0,0,0,0,0,1,1,2,0,2,2,0,no
21,4,3,3,1,0,1,1,21,0,21,21,0,no
26,3,4,2,1,3,2,2,27,1,26,14,1,no
25,5,4,4,0,1,2,2,26,1,25,13.5,1,no
21,3,4,2,1,3,2,2,22,1,21,11.5,1,no
16,3,3,3,1,0,1,1,16,0,16,16,0,no
18,3,4,4,0,0,1,1,18,0,18,18,0,no
3,1,0,0,0,0,1,1,3,0,3,3,0,no
2,0,0,0,0,0,1,1,2,0,2,2,0,no
21,4,3,3,1,0,1,1,21,0,21,21,0,no
21,5,2,1,0,7,1,1,21,0,21,21,0,no
19,3,3,2,0,1,1,1,19,0,19,19,0,no
24,5,4,4,0,1,2,2,25,1,24,13,1,no
14,3,3,2,0,1,1,1,14,0,14,14,0,no
16,3,3,3,1,0,1,1,16,0,16,16,0,no
17,3,4,4,0,0,1,1,17,0,17,17,0,no
5,0,1,1,0,0,1,1,5,0,5,5,0,no
6,2,0,0,1,0,1,1,6,0,6,6,0,no
3,0,0,0,0,0,1,1,3,0,3,3,0,no
3,0,0,0,0,0,1,1,3,0,3,3,0,no
0,5,0,0,1,0,1,1,0,0,0,0,0,no
0,5,0,0,1,0,1,1,0,0,0,0,0,no
0,0,0,0,1,0,1,1,0,0,0,0,0,no
0,4,0,0,1,0,1,1,0,0,0,0,0,no
0,3,0,0,1,0,1,1,0,0,0,0,0,no
0,6,0,0,1,0,1,1,0,0,0,0,0,no
0,6,0,0,1,0,1,1,0,0,0,0,0,no
0,4,0,0,1,0,1,1,0,0,0,0,0,no
0,3,0,0,1,0,1,1,0,0,0,0,0,no
0,5,0,0,1,0,1,1,0,0,0,0,0,no
0,4,0,0,1,0,1,1,0,0,0,0,0,no
0,3,0,0,1,0,1,1,0,0,0,0,0,no
0,5,0,0,1,0,1,1,0,0,0,0,0,no
11,2,3,1,1,0,1,1,11,0,11,11,1,no
3,0,0,0,0,0,1,1,3,0,3,3,0,no
26,0,2,1,0,3,1,1,26,0,26,26,0,no
8,3,1,1,0,0,1,1,8,0,8,8,0,no
3,0,0,0,0,0,1,1,3,0,3,3,0,no
3,0,0,0,0,0,1,1,3,0,3,3,0,no
3,0,0,0,0,0,1,1,3,0,3,3,0,no
2,0,0,0,0,0,1,1,2,0,2,2,0,no
3,0,0,0,0,0,1,1,3,0,3,3,1,no
4,0,0,0,0,1,1,1,4,0,4,4,1,no
3,0,0,0,0,0,1,1,3,0,3,3,1,no
4,2,0,0,0,0,1,1,4,0,4,4,0,no
2,0,0,0,0,0,1,1,2,0,2,2,0,no
19,5,3,3,0,1,2,1,20,1,19,10.5,0,no
34,5,7,4,0,2,2,2,35,1,34,18,1,no
3,0,0,0,0,0,1,1,3,0,3,3,0,no
29,4,4,1,0,3,2,1,30,1,29,15.5,0,no
61,3,10,2,2,11,3,1,63,2,61,21.666667,0,no
34,6,7,4,0,2,2,2,35,1,34,18,1,no
3,2,0,0,0,0,1,1,3,0,3,3,0,no
3,2,0,0,0,0,1,1,3,0,3,3,0,no
3,6,0,0,0,0,1,1,3,0,3,3,0,no
55,4,10,2,2,10,3,1,57,2,55,19.666667,0,no
4,1,1,1,1,0,1,1,4,0,4,4,0,no
27,5,5,1,0,3,3,1,29,2,27,10.333333,0,no
24,5,4,1,0,3,3,1,26,2,24,9.333333,0,no
17,4,4,4,0,1,4,2,19,2,14,5.25,1,no
14,4,3,3,0,1,3,1,16,2,14,6,0,no
17,3,4,4,0,1,3,2,18,1,14,6.333333,1,no
4,2,0,0,0,0,1,1,4,0,4,4,0,no
2,0,0,0,0,0,1,1,2,0,2,2,0,no
19,4,2,2,0,2,2,2,20,1,19,10.5,1,no
32,4,6,3,0,2,3,2,34,2,32,12,1,no
3,1,0,0,0,0,1,1,3,0,3,3,0,no
26,3,3,1,2,4,2,2,27,1,26,14,1,no
30,5,5,3,0,2,4,3,33,3,30,9,1,no
20,5,3,1,2,3,2,2,21,1,20,11,1,no
16,4,3,3,0,1,2,2,17,1,16,9,1,no
13,4,2,2,0,1,1,1,13,0,13,13,0,no
18,3,4,3,0,1,2,2,19,1,18,10,1,no
4,2,0,0,0,0,1,1,4,0,4,4,0,no
2,0,0,0,0,0,1,1,2,0,2,2,0,no
20,4,2,1,1,3,1,1,20,0,20,20,0,no
29,4,5,3,0,3,3,2,31,2,29,11,1,no
3,1,0,0,0,0,1,1,3,0,3,3,0,no
12,5,1,1,0,2,1,1,12,0,12,12,0,no
18,3,2,1,0,2,1,1,18,0,18,18,0,no
32,5,5,3,0,4,3,2,34,2,32,12,1,no
12,5,2,1,0,1,1,1,12,0,12,12,0,no
16,4,3,3,0,1,2,2,17,1,16,9,1,no
12,4,2,1,0,1,1,1,12,0,12,12,0,no
14,3,3,3,0,1,2,2,15,1,14,8,1,no
3,1,0,0,0,0,2,2,4,1,3,2.5,1,no
3,2,0,0,0,0,1,1,3,0,3,3,1,no
13,3,0,0,1,0,1,1,13,0,13,13,1,no
5,3,0,0,0,0,2,2,6,1,5,3.5,0,no
3,0,0,0,0,0,1,1,3,0,3,3,1,no
13,3,2,0,1,4,1,1,13,0,13,13,0,no
10,5,0,0,0,1,2,1,10,0,9,5,0,no
6,0,1,1,0,0,1,1,6,0,6,6,0,no
21,1,3,2,0,3,3,2,22,1,19,7.666667,0,no
3,2,0,0,0,0,2,2,4,1,3,2.5,1,no
7,3,1,1,0,0,1,1,7,0,7,7,0,no
21,0,4,4,0,1,2,2,21,0,14,10.5,0,no
17,0,3,2,1,1,3,3,18,1,9,6.333333,1,no
35,1,7,2,2,8,3,3,36,1,22,12.333333,1,no
20,1,3,2,0,1,1,1,20,0,20,20,0,no
29,0,6,2,2,0,5,2,35,6,24,8.2,1,no
40,0,3,2,0,5,7,2,42,2,36,6.285714,1,no
21,0,5,2,1,0,1,1,21,0,21,21,0,no
30,0,2,2,0,3,9,3,32,2,24,3.777778,1,no
3,2,0,0,0,0,1,1,3,0,3,3,0,no
5,1,1,1,0,0,2,2,5,0,3,2.5,1,no
3,1,0,0,0,0,1,1,3,0,3,3,1,no
3,0,0,0,0,0,1,1,3,0,3,3,0,no
3,0,0,0,0,0,2,1,4,1,3,2.5,1,no
3,0,0,0,0,0,1,1,3,0,3,3,0,no
3,0,0,0,0,0,1,1,3,0,3,3,0,no
3,0,0,0,0,0,1,1,3,0,3,3,0,no
3,0,0,0,0,0,1,1,3,0,3,3,0,no
3,0,0,0,0,0,1,1,3,0,3,3,0,no
3,0,0,0,0,0,1,1,3,0,3,3,0,no
3,0,0,0,0,0,1,1,3,0,3,3,0,no
0,0,0,0,1,0,1,1,0,0,0,0,0,no
0,0,0,0,1,0,1,1,0,0,0,0,0,no
0,0,0,0,1,0,1,1,0,0,0,0,0,no
0,0,0,0,1,0,1,1,0,0,0,0,0,no
0,0,0,0,1,0,1,1,0,0,0,0,0,no
0,0,0,0,1,0,1,1,0,0,0,0,0,no
0,0,0,0,1,0,1,1,0,0,0,0,0,no
5,3,0,0,0,0,1,1,5,0,5,5,0,no
12,0,1,1,0,1,1,1,12,0,12,12,0,no
6,0,1,1,0,1,1,1,6,0,6,6,0,no
3,0,0,0,0,0,1,1,3,0,3,3,0,no
3,0,0,0,0,0,1,1,3,0,3,3,0,no
3,0,0,0,0,0,1,1,3,0,3,3,0,no
3,0,0,0,0,0,1,1,3,0,3,3,0,no
3,1,0,0,0,0,1,1,3,0,3,3,0,no
3,0,0,0,0,0,1,1,3,0,3,3,0,no
3,0,0,0,0,0,1,1,3,0,3,3,0,no
3,0,0,0,0,0,1,1,3,0,3,3,0,no
8,6,1,0,0,0,1,1,8,0,8,8,0,no
3,0,0,0,0,0,1,1,3,0,3,3,0,no
3,0,0,0,0,0,1,1,3,0,3,3,0,no
3,0,0,0,0,0,1,1,3,0,3,3,0,no
3,0,0,0,0,0,1,1,3,0,3,3,0,no
3,0,0,0,0,0,1,1,3,0,3,3,0,no
3,0,0,0,0,0,1,1,3,0,3,3,0,no
2,0,0,0,1,0,1,1,2,0,2,2,0,no
3,0,0,0,0,0,1,1,3,0,3,3,0,no
11,0,3,2,0,3,1,1,11,0,11,11,0,no
25,1,6,3,0,1,2,2,25,0,21,12.5,1,no
6,4,0,0,0,0,1,1,6,0,6,6,0,no
14,2,2,2,0,0,3,2,17,3,16,6.666667,1,no
5,2,0,0,0,1,2,2,6,1,5,3.5,0,no
5,2,1,1,0,0,1,1,5,0,5,5,0,no
10,2,1,1,0,2,2,2,12,2,12,7,0,no
16,2,2,1,0,4,2,2,16,0,15,8,0,no
6,3,0,0,1,2,2,2,8,2,8,5,0,no
8,1,1,1,0,0,2,2,10,2,10,6,0,no
9,5,0,0,0,0,2,1,9,0,8,4.5,0,no
3,3,0,0,0,0,1,1,3,0,3,3,0,no
4,3,0,0,0,1,1,1,4,0,4,4,1,no
3,3,0,0,0,0,1,1,3,0,3,3,0,no
3,1,0,0,0,0,1,1,3,0,3,3,0,no
2,1,0,0,0,0,1,1,2,0,2,2,0,no
7,1,1,1,0,1,1,1,7,0,7,7,0,no
3,2,0,0,0,0,2,2,18,15,18,16.5,0,no
39,3,3,1,4,3,1,1,39,0,39,39,1,no
2,2,0,0,0,0,1,1,2,0,2,2,0,no
81,1,12,3,4,12,2,1,82,1,81,41.5,1,no
7,1,1,1,0,1,1,1,7,0,7,7,0,no
8,1,1,1,0,1,1,1,8,0,8,8,0,no
3,3,0,0,0,0,2,2,4,1,3,2.5,0,no
3,1,0,0,0,0,1,1,3,0,3,3,0,no
41,7,5,1,2,5,3,2,42,1,40,14.333333,1,no
3,1,0,0,0,0,1,1,3,0,3,3,0,no
27,3,4,2,4,2,1,1,27,0,27,27,0,no
3,1,0,0,0,0,1,1,3,0,3,3,0,no
3,4,0,0,0,0,1,1,3,0,3,3,1,no
3,1,0,0,0,0,1,1,3,0,3,3,0,no
3,2,0,0,0,0,1,1,3,0,3,3,0,no
7,0,1,1,0,0,1,1,7,0,7,7,0,no
3,2,0,0,1,0,1,1,3,0,3,3,0,no
3,2,0,0,1,0,1,1,3,0,3,3,0,no
3,2,0,0,1,0,1,1,3,0,3,3,1,no
2,2,0,0,0,0,1,1,2,0,2,2,1,no
18,2,1,1,2,1,1,1,18,0,18,18,1,no
3,2,0,0,1,0,1,1,3,0,3,3,1,no
2,2,0,0,0,0,1,1,2,0,2,2,1,no
40,4,5,2,3,4,2,1,41,1,40,21,1,no
4,2,0,0,1,0,1,1,4,0,4,4,0,no
11,2,1,1,1,2,1,1,11,0,11,11,0,no
2,3,0,0,2,0,1,1,2,0,2,2,0,no
35,3,5,1,2,4,2,1,35,0,34,17.5,1,no
3,2,0,0,0,0,1,1,3,0,3,3,0,no
5,2,0,0,0,0,1,1,5,0,5,5,0,no
3,3,0,0,0,0,1,1,3,0,3,3,0,no
37,2,6,2,3,7,1,1,37,0,37,37,1,no
13,2,2,2,0,2,3,1,24,11,23,11.666667,1,no
33,3,6,3,2,5,1,1,33,0,33,33,1,no
54,4,6,2,4,9,2,1,54,0,50,27,1,no
20,0,2,1,0,0,3,2,34,14,33,16,1,no
3,2,0,0,0,0,1,1,3,0,3,3,0,no
7,2,1,1,0,0,2,1,8,1,7,4.5,1,no
26,3,5,2,3,5,4,2,50,1,40,12.75,1,no
49,3,6,2,4,9,4,2,50,1,40,12.75,1,no
31,4,4,2,2,7,4,2,32,1,22,8.25,1,no
3,3,0,0,0,0,1,1,3,0,3,3,0,no
24,1,2,1,2,5,2,1,24,0,23,12,1,no
9,0,1,1,1,1,1,1,9,0,9,9,0,no
17,3,2,1,2,3,2,1,17,0,16,8.5,1,no
4,2,0,0,0,0,1,1,4,0,4,4,0,no
21,0,4,2,0,5,2,1,26,5,26,15.5,1,no
3,1,0,0,0,0,1,1,3,0,3,3,1,no
4,2,0,0,0,0,1,1,4,0,4,4,1,no
4,0,0,0,0,0,1,1,4,0,4,4,1,no
4,1,0,0,0,0,1,1,4,0,4,4,0,no
3,0,0,0,0,0,5,4,53,50,49,20.6,1,no
3,1,0,0,0,0,3,2,5,2,4,2.333333,1,no
7,4,0,0,0,0,1,1,7,0,7,7,1,no
73,3,11,2,6,7,7,3,78,5,66,11.857143,1,no
8,0,2,1,0,0,2,2,9,1,8,5,1,no
13,1,2,2,0,2,2,2,14,1,13,7.5,1,no
11,3,1,1,2,1,1,1,11,0,11,11,0,no
40,4,6,2,3,4,6,3,45,5,39,8.333333,1,no
3,1,0,0,0,0,1,1,3,0,3,3,0,no
14,0,4,2,0,2,1,1,14,0,14,14,0,no
4,2,0,0,0,0,1,1,4,0,4,4,0,no
6,0,1,1,0,1,1,1,6,0,6,6,0,no
4,4,0,0,0,0,1,1,4,0,4,4,1,no
45,0,6,3,0,10,3,1,46,1,36,15.666667,1,no
3,2,0,0,0,0,1,1,3,0,3,3,0,no
7,2,1,1,0,1,1,1,7,0,7,7,0,no
4,2,0,0,0,0,1,1,4,0,4,4,0,no
17,1,7,2,6,1,1,1,17,0,17,17,0,no
3,0,0,0,0,0,1,1,3,0,3,3,0,no
3,0,0,0,0,0,1,1,3,0,3,3,0,no
7,0,1,0,0,2,1,1,7,0,7,7,0,no
3,0,0,0,0,0,1,1,3,0,3,3,0,no
2,0,0,0,2,0,1,1,2,0,2,2,0,no
7,2,1,1,0,0,1,1,7,0,7,7,0,no
3,0,0,0,0,0,1,1,3,0,3,3,0,no
6,0,1,1,0,0,1,1,6,0,6,6,0,no
3,0,0,0,0,0,1,1,3,0,3,3,0,no
3,2,0,0,0,0,1,1,3,0,3,3,0,no
7,1,2,2,0,1,2,2,7,0,6,3.5,0,no
13,2,3,2,1,1,3,3,15,2,14,5.666667,0,no
0,0,0,0,1,0,1,1,0,0,0,0,0,no
0,0,0,0,1,0,1,1,0,0,0,0,0,no
12,0,3,1,2,0,1,1,12,0,12,12,0,no
16,2,2,2,0,3,1,1,16,0,16,16,0,no
2,1,0,0,0,0,1,1,2,0,2,2,0,no
2,1,0,0,0,0,1,1,2,0,2,2,0,no
30,2,6,3,5,4,3,3,30,0,21,10,1,no
18,2,3,3,0,2,2,2,18,0,9,9,1,no
2,2,0,0,0,0,1,1,2,0,2,2,0,no
12,1,2,1,0,2,1,1,12,0,12,12,0,no
18,0,4,3,1,1,1,1,18,0,18,18,0,no
3,1,0,0,0,0,1,1,3,0,3,3,0,no
3,3,0,0,0,0,1,1,3,0,3,3,0,no
7,1,0,0,1,3,3,3,8,1,4,3,1,no
3,0,0,0,0,0,1,1,3,0,3,3,0,no
47,1,6,3,4,10,2,2,48,1,47,24.5,0,no
4,0,0,0,0,0,1,1,4,0,4,4,0,no
4,1,0,0,1,0,1,1,4,0,4,4,0,no
76,7,13,5,4,11,2,2,76,0,68,38,1,no
4,1,0,0,1,0,1,1,4,0,4,4,0,no
2,2,0,0,0,0,1,1,2,0,2,2,0,no
2,0,0,0,0,0,1,1,2,0,2,2,0,no
8,0,1,1,0,0,1,1,8,0,8,8,0,no
8,0,1,1,0,0,1,1,8,0,8,8,1,no
4,4,0,0,0,1,1,1,4,0,4,4,0,no
8,3,1,1,0,1,1,1,8,0,8,8,0,no
14,3,3,2,0,1,1,1,14,0,14,14,0,no
6,4,0,0,0,0,1,1,6,0,6,6,0,no
3,0,0,0,0,0,1,1,3,0,3,3,0,no
3,0,0,0,0,0,1,1,3,0,3,3,0,no
3,0,0,0,0,0,1,1,3,0,3,3,0,no
3,0,0,0,0,0,1,1,3,0,3,3,0,no
0,1,0,0,1,0,1,1,0,0,0,0,0,no
0,1,0,0,1,0,1,1,0,0,0,0,0,no
0,2,0,0,1,0,1,1,0,0,0,0,0,no
0,2,0,0,1,0,1,1,0,0,0,0,0,no
0,1,0,0,1,0,1,1,0,0,0,0,0,no
0,3,0,0,1,0,1,1,0,0,0,0,0,no
0,1,0,0,1,0,1,1,0,0,0,0,0,no
0,1,0,0,1,0,1,1,0,0,0,0,0,no
0,2,0,0,1,0,1,1,0,0,0,0,0,no
0,0,0,0,1,0,1,1,0,0,0,0,0,no
0,1,0,0,1,0,1,1,0,0,0,0,0,no
8,6,0,0,0,0,1,1,8,0,8,8,0,no
3,0,0,0,0,0,1,1,3,0,3,3,0,no
3,0,0,0,0,0,1,1,3,0,3,3,0,no
3,0,0,0,0,0,1,1,3,0,3,3,0,no
3,0,0,0,0,0,1,1,3,0,3,3,0,no
3,0,0,0,0,0,1,1,3,0,3,3,0,no
3,0,0,0,0,0,1,1,3,0,3,3,0,no
7,2,0,0,0,0,4,3,9,2,5,2.75,1,no
24,3,3,2,1,4,5,4,30,6,15,7.2,1,no
3,2,0,0,0,0,1,1,3,0,3,3,0,no
3,1,0,0,0,0,1,1,3,0,3,3,0,no
13,2,1,1,1,3,1,1,13,0,13,13,1,no
15,1,4,3,0,2,1,1,15,0,15,15,1,no
3,1,0,0,0,0,1,1,3,0,3,3,0,no
3,2,0,0,0,0,1,1,3,0,3,3,0,no
3,2,0,0,0,0,2,2,4,1,3,2.5,1,no
13,1,1,1,0,4,1,1,13,0,13,13,0,no
25,3,4,2,1,8,3,3,27,2,25,9.666667,1,no
17,2,2,1,1,0,2,1,17,0,15,8.5,1,no
3,1,0,0,0,0,1,1,3,0,3,3,0,no
3,3,0,0,0,0,1,1,3,0,3,3,0,no
4,1,0,0,0,1,1,1,4,0,4,4,0,no
9,1,1,1,0,0,2,1,10,1,9,5.5,1,no
4,1,0,0,0,0,1,1,4,0,4,4,1,no
24,4,4,1,0,4,3,2,29,5,17,11.333333,1,no
3,1,0,0,0,0,2,2,4,1,3,2.5,1,no
3,2,0,0,0,0,1,1,3,0,3,3,0,no
3,0,0,0,0,0,2,2,4,1,4,2.5,1,no
8,0,1,1,0,0,2,2,8,0,5,4,1,no
9,0,2,2,0,0,1,1,9,0,9,9,0,no
4,0,0,0,0,0,2,1,4,0,3,2,1,no
3,0,0,0,0,0,1,1,3,0,3,3,1,no
0,0,0,0,1,0,1,1,0,0,0,0,0,no
3,1,0,0,0,0,1,1,3,0,3,3,0,no
11,1,2,1,0,2,1,1,11,0,11,11,0,no
3,0,0,0,0,0,1,1,3,0,3,3,0,no
4,2,0,0,0,0,1,1,4,0,4,4,0,no
21,0,3,1,0,5,2,2,23,2,23,12.5,0,no
4,2,0,0,0,0,1,1,4,0,4,4,0,no
5,0,0,0,0,0,1,1,5,0,5,5,0,no
3,0,0,0,0,0,1,1,3,0,3,3,0,no
3,0,0,0,0,0,1,1,3,0,3,3,0,no
6,2,0,0,0,3,2,2,7,1,6,4,0,no
7,2,0,0,0,3,2,2,8,1,7,4.5,1,no
3,0,0,0,0,0,1,1,3,0,3,3,0,no
4,2,0,0,0,0,1,1,4,0,4,4,0,no
6,1,1,1,0,1,2,2,7,1,6,4,1,no
14,2,2,1,1,2,2,2,15,1,14,8,1,no
3,2,0,0,0,0,1,1,3,0,3,3,0,no
5,2,1,1,0,0,1,1,5,0,5,5,0,no
3,1,0,0,0,0,1,1,3,0,3,3,0,no
16,0,2,1,0,3,2,2,16,0,8,8,1,no
4,2,0,0,0,0,1,1,4,0,4,4,0,no
3,0,0,0,0,0,2,2,4,1,3,2.5,1,no
3,0,0,0,0,0,1,1,3,0,3,3,0,no
3,1,0,0,0,0,1,1,3,0,3,3,0,no
3,0,0,0,0,0,1,1,3,0,3,3,0,no
3,0,0,0,0,0,1,1,3,0,3,3,0,no
3,0,0,0,0,0,1,1,3,0,3,3,0,no
3,0,0,0,0,0,2,1,4,1,3,2.5,1,no
3,0,0,0,0,0,2,1,4,1,3,2.5,1,no
3,0,0,0,0,0,1,1,3,0,3,3,0,no
0,0,0,0,1,0,1,1,0,0,0,0,0,no
0,0,0,0,1,0,1,1,0,0,0,0,0,no
0,0,0,0,1,0,1,1,0,0,0,0,0,no
0,0,0,0,1,0,1,1,0,0,0,0,0,no
0,2,0,0,1,0,1,1,0,0,0,0,0,no
0,2,0,0,1,0,1,1,0,0,0,0,0,no
0,2,0,0,1,0,1,1,0,0,0,0,0,no
4,2,0,0,0,0,1,1,4,0,4,4,0,no
7,1,1,1,1,1,1,1,7,0,7,7,0,no
3,0,0,0,0,0,1,1,3,0,3,3,0,no
3,0,0,0,0,0,1,1,3,0,3,3,0,no
3,0,0,0,0,0,1,1,3,0,3,3,0,no
6,4,0,0,0,0,1,1,6,0,6,6,0,no
3,0,0,0,0,0,1,1,3,0,3,3,0,no
3,0,0,0,0,0,1,1,3,0,3,3,0,no
3,0,0,0,0,0,1,1,3,0,3,3,0,no
3,0,0,0,0,0,1,1,3,0,3,3,0,no
3,1,0,0,0,0,1,1,3,0,3,3,0,no
3,2,0,0,0,0,1,1,3,0,3,3,0,no
3,2,0,0,0,0,2,2,10,7,10,8.5,0,no
10,1,2,1,0,2,1,1,10,0,10,10,0,no
9,3,2,1,0,1,1,1,9,0,9,9,0,no
3,2,0,0,0,0,1,1,3,0,3,3,0,no
10,2,2,2,0,3,1,1,10,0,10,10,0,no
16,2,3,1,0,2,1,1,16,0,16,16,0,no
2,2,0,0,2,0,1,1,2,0,2,2,0,no
2,2,0,0,2,0,1,1,2,0,2,2,0,no
3,1,0,0,0,0,1,1,3,0,3,3,0,no
9,2,0,0,1,0,2,2,21,12,21,16.5,1,no
3,0,0,0,0,0,1,1,3,0,3,3,1,no
3,0,0,0,0,0,1,1,3,0,3,3,0,no
3,0,0,0,0,0,1,1,3,0,3,3,1,no
11,0,0,0,0,0,3,2,12,1,10,4.333333,1,no
14,0,0,0,0,4,2,2,14,0,13,7,0,no
22,1,4,2,2,4,2,2,23,1,22,12,1,no
5,0,0,0,0,0,2,2,6,1,5,3.5,0,no
15,0,0,0,0,2,2,2,15,0,14,7.5,1,no
8,0,0,0,0,1,2,2,8,0,7,4,0,no
3,2,0,0,0,0,1,1,3,0,3,3,0,no
4,2,0,0,0,0,1,1,4,0,4,4,0,no
19,2,1,1,0,2,1,1,19,0,19,19,0,no
3,2,0,0,0,0,1,1,3,0,3,3,0,no
4,2,0,0,0,0,1,1,4,0,4,4,0,no
3,0,0,0,0,0,1,1,3,0,3,3,0,no
3,0,0,0,0,0,1,1,3,0,3,3,0,no
3,1,0,0,0,0,1,1,3,0,3,3,0,no
12,2,2,1,0,1,1,1,12,0,12,12,0,no
3,1,0,0,0,0,1,1,3,0,3,3,0,no
17,2,1,1,0,1,1,1,17,0,17,17,0,no
3,2,0,0,0,0,1,1,3,0,3,3,0,no
3,2,0,0,0,0,1,1,3,0,3,3,0,no
4,2,0,0,0,0,1,1,4,0,4,4,0,no
41,2,5,1,0,6,4,3,43,2,38,11.25,1,no
13,5,1,1,0,2,1,1,13,0,13,13,0,no
6,1,1,1,0,0,1,1,6,0,6,6,0,no
4,2,0,0,0,0,1,1,4,0,4,4,0,no
20,2,3,1,0,2,2,2,21,1,20,11,1,no
4,2,0,0,0,0,1,1,4,0,4,4,0,no
3,1,0,0,0,0,1,1,3,0,3,3,0,no
25,2,2,1,0,3,2,2,25,0,24,12.5,1,no
3,2,0,0,0,0,1,1,3,0,3,3,0,no
9,2,1,1,0,0,1,1,9,0,9,9,0,no
4,2,0,0,0,0,1,1,4,0,4,4,0,no
21,2,1,1,0,2,1,1,21,0,21,21,0,no
3,2,0,0,0,0,1,1,3,0,3,3,0,no
3,2,0,0,0,0,1,1,3,0,3,3,0,no
4,1,0,0,0,0,1,1,4,0,4,4,0,no
4,2,0,0,0,0,1,1,4,0,4,4,0,no
5,3,0,0,0,0,1,1,5,0,5,5,1,no
20,1,1,1,1,2,2,2,20,0,12,10,1,no
3,0,0,0,0,0,1,1,3,0,3,3,1,no
3,0,0,0,0,0,1,1,3,0,3,3,1,no
3,1,0,0,0,0,1,1,3,0,3,3,0,no
4,5,0,0,0,1,2,2,4,0,3,2,0,no
3,5,0,0,0,0,1,1,3,0,3,3,0,no
3,4,0,0,0,0,1,1,3,0,3,3,0,no
4,3,0,0,0,1,2,2,4,0,3,2,0,no
3,3,0,0,0,0,1,1,3,0,3,3,0,no
3,2,0,0,0,0,1,1,3,0,3,3,0,no
12,5,2,1,1,1,3,3,13,1,8,4.666667,1,no
66,5,13,3,11,1,4,2,68,2,63,17.5,1,no
15,3,3,1,1,3,5,4,61,46,58,21.4,1,no
37,1,6,4,4,3,3,3,38,1,22,13,1,no
13,2,2,1,0,1,2,2,14,1,13,7.5,1,no
16,3,2,1,0,1,2,2,17,1,16,9,1,no
6,0,1,1,0,1,3,3,7,1,5,2.666667,1,no
8,0,1,1,0,1,3,3,21,1,14,7.333333,1,no
9,0,3,1,1,3,3,3,21,1,14,7.333333,1,no
20,0,4,4,1,3,3,3,21,1,14,7.333333,1,no
4,2,1,1,2,0,3,3,6,2,4,2.666667,1,no
4,2,1,1,1,0,3,3,6,2,4,2.666667,1,no
8,2,2,1,2,0,2,2,9,1,8,5,1,no
38,2,8,2,8,0,4,2,40,2,35,10.5,1,no
19,5,3,1,3,0,3,2,21,2,19,7.666667,1,no
5,2,1,1,2,0,2,2,6,1,5,3.5,1,no
5,2,1,1,1,0,2,1,6,1,5,3.5,0,no
49,0,7,3,0,8,3,2,57,8,56,21.666667,1,no
3,0,0,0,0,0,2,1,6,3,6,4.5,1,no
3,2,0,0,0,0,1,1,3,0,3,3,1,no
3,2,0,0,0,0,1,1,3,0,3,3,1,no
12,1,1,1,0,2,1,1,12,0,12,12,0,no
3,0,0,0,0,0,1,1,3,0,3,3,0,no
10,5,1,1,0,0,1,1,10,0,10,10,0,no
3,3,0,0,0,0,1,1,3,0,3,3,0,no
3,1,0,0,0,0,1,1,3,0,3,3,0,no
3,4,0,0,0,0,1,1,3,0,3,3,0,no
0,5,0,0,1,0,1,1,0,0,0,0,0,no
0,5,0,0,0,0,1,1,0,0,0,0,0,no
5,1,2,2,2,1,1,1,5,0,5,5,0,no
0,0,0,0,0,0,1,1,0,0,0,0,0,no
3,1,0,0,0,0,6,2,8,5,5,2.166667,1,no
6,4,1,1,0,2,1,1,6,0,6,6,0,no
3,1,1,1,1,1,1,1,3,0,3,3,0,no
0,4,0,0,1,0,1,1,0,0,0,0,0,no
0,3,0,0,1,0,1,1,0,0,0,0,0,no
0,6,0,0,0,0,1,1,0,0,0,0,0,no
3,5,0,0,0,0,1,1,3,0,3,3,0,no
3,5,0,0,0,0,1,1,3,0,3,3,0,no
22,0,2,2,0,3,3,2,23,1,19,8,1,no
3,4,0,0,0,0,1,1,3,0,3,3,0,no
20,1,4,2,0,3,2,1,21,1,20,11,0,no
0,6,0,0,0,0,1,1,0,0,0,0,0,no
35,5,2,1,0,2,2,1,35,0,25,17.5,0,no
35,5,2,1,0,2,2,1,35,0,25,17.5,0,no
16,3,3,3,0,4,1,1,16,0,16,16,0,no
17,2,1,1,0,0,1,1,17,0,17,17,0,no
17,2,1,1,0,0,1,1,17,0,17,17,0,no
4,2,0,0,0,0,1,1,4,0,4,4,0,no
4,2,0,0,0,0,1,1,4,0,4,4,0,no
3,2,0,0,0,0,1,1,3,0,3,3,0,no
3,2,0,0,0,0,1,1,3,0,3,3,0,no
4,2,0,0,0,0,1,1,4,0,4,4,0,no
4,2,0,0,0,0,1,1,4,0,4,4,0,no
3,2,0,0,0,0,1,1,3,0,3,3,1,no
3,2,0,0,0,0,1,1,3,0,3,3,1,no
3,3,0,0,0,0,1,1,3,0,3,3,0,no
34,0,2,1,2,1,4,3,38,4,36,10.5,1,no
3,2,0,0,0,0,1,1,3,0,3,3,0,no
21,2,1,1,2,1,3,3,25,4,24,9.666667,0,no
4,2,0,0,1,0,1,1,4,0,4,4,0,no
5,2,0,0,1,0,1,1,5,0,5,5,0,no
3,4,0,0,1,0,1,1,3,0,3,3,0,no
3,0,0,0,0,0,1,1,3,0,3,3,0,no
5,5,0,0,0,0,1,1,5,0,5,5,0,no
33,0,5,2,0,2,4,2,34,1,20,8.75,1,no
3,2,0,0,0,0,1,1,3,0,3,3,1,no
4,2,0,0,0,0,1,1,4,0,4,4,1,no
25,0,7,3,6,7,6,3,26,1,18,4.5,1,no
3,2,0,0,0,0,1,1,3,0,3,3,1,no
2,2,0,0,2,0,1,1,2,0,2,2,1,no
3,3,0,0,0,0,2,1,6,0,3,3,1,no
36,0,6,3,2,3,5,2,43,7,22,10,1,no
18,0,5,3,0,2,5,2,25,7,19,6.4,1,no
4,2,0,0,1,0,1,1,4,0,4,4,1,no
4,2,0,0,1,0,2,1,4,0,3,2,1,no
5,5,0,0,0,0,1,1,5,0,5,5,0,no
97,0,10,3,4,11,9,3,107,10,55,13,1,no
3,2,0,0,0,0,1,1,3,0,3,3,0,no
3,2,0,0,0,0,1,1,3,0,3,3,0,no
32,2,1,1,4,1,1,1,32,0,32,32,0,no
7,2,1,1,0,0,8,3,41,34,25,9.375,1,no
17,2,0,0,2,0,6,3,25,8,16,5.5,1,no
5,2,0,0,0,0,5,2,8,3,4,2.2,0,no
3,0,0,0,0,0,1,1,3,0,3,3,0,no
4,2,0,0,1,0,1,1,4,0,4,4,0,no
3,2,0,0,0,0,1,1,3,0,3,3,0,no
4,4,0,0,0,0,1,1,4,0,4,4,0,no
25,0,3,1,1,1,6,3,28,3,24,5.166667,1,no
3,2,0,0,0,0,1,1,3,0,3,3,0,no
7,2,1,1,1,0,1,1,7,0,7,7,0,no
8,1,1,1,0,1,1,1,8,0,8,8,0,no
4,3,0,0,0,0,1,1,4,0,4,4,0,no
7,1,1,1,1,0,2,2,8,1,7,4.5,0,no
2,0,0,0,0,0,1,1,2,0,2,2,0,no
3,5,0,0,0,0,1,1,3,0,3,3,0,no
3,5,0,0,0,0,1,1,3,0,3,3,0,no
3,5,0,0,0,0,1,1,3,0,3,3,0,no
3,0,0,0,0,0,1,1,3,0,3,3,0,no
9,1,2,1,1,1,3,2,9,0,4,3,1,no
13,4,2,1,0,2,2,2,13,0,8,6.5,1,no
8,3,1,1,0,1,2,2,9,1,8,5,1,no
3,6,0,0,0,0,1,1,3,0,3,3,0,no
3,6,0,0,0,0,1,1,3,0,3,3,0,no
3,2,0,0,0,0,1,1,3,0,3,3,0,no
13,3,1,1,0,1,2,1,13,0,12,6.5,1,no
3,0,0,0,0,0,1,1,3,0,3,3,0,no
3,0,0,0,0,0,1,1,3,0,3,3,1,no
3,0,0,0,0,0,1,1,3,0,3,3,0,no
3,0,0,0,0,0,1,1,3,0,3,3,0,no
3,0,0,0,0,0,1,1,3,0,3,3,0,no
12,2,2,1,0,1,2,2,12,0,8,6,1,no
8,0,1,1,0,1,1,1,8,0,8,8,1,no
3,1,0,0,0,0,1,1,3,0,3,3,1,no
3,1,0,0,0,0,1,1,3,0,3,3,0,no
4,0,0,0,0,1,2,1,4,0,3,2,0,no
52,1,13,5,0,7,4,2,53,1,40,13.5,1,no
4,6,0,0,0,0,1,1,4,0,4,4,0,no
3,5,0,0,0,0,1,1,3,0,3,3,0,no
3,5,0,0,0,0,1,1,3,0,3,3,0,no
3,0,0,0,0,0,1,1,3,0,3,3,0,no
16,4,1,1,0,0,1,1,16,0,16,16,0,no
17,3,1,1,0,3,3,1,17,0,13,5.666667,0,no
3,6,0,0,0,0,1,1,3,0,3,3,0,no
8,0,1,1,0,0,1,1,8,0,8,8,0,no
3,6,0,0,0,0,1,1,3,0,3,3,0,no
3,2,0,0,0,0,1,1,3,0,3,3,0,no
8,2,1,1,0,3,2,1,8,0,7,4,0,no
3,2,0,0,0,0,1,1,3,0,3,3,0,no
7,2,1,1,0,0,1,1,7,0,7,7,0,no
0,3,0,0,1,0,1,1,0,0,0,0,0,no
0,1,0,0,1,0,1,1,0,0,0,0,0,no
0,1,0,0,1,0,1,1,0,0,0,0,0,no
0,4,0,0,1,0,1,1,0,0,0,0,0,no
0,5,0,0,1,0,1,1,0,0,0,0,0,no
0,5,0,0,1,0,1,1,0,0,0,0,0,no
0,0,0,0,1,0,1,1,0,0,0,0,1,no
0,4,0,0,1,0,1,1,0,0,0,0,0,no
12,2,1,1,0,1,2,2,12,0,6,6,0,no
3,1,0,0,0,0,1,1,3,0,3,3,0,no
3,4,0,0,0,0,1,1,3,0,3,3,0,no
3,1,0,0,0,0,1,1,3,0,3,3,0,no
34,3,2,1,4,4,4,3,45,11,35,14,1,yes
0,3,0,0,0,0,1,1,0,0,0,0,0,no
0,4,0,0,0,0,1,1,0,0,0,0,0,no
5,3,1,1,1,1,2,2,6,1,5,3.5,0,no
3,3,0,0,0,0,1,1,3,0,3,3,0,no
15,2,1,1,2,0,1,1,15,0,15,15,0,no
2,0,0,0,0,0,1,1,2,0,2,2,1,no
3,2,0,0,1,0,1,1,3,0,3,3,0,yes
6,2,1,1,1,0,1,1,6,0,6,6,0,yes
12,2,0,0,4,1,2,2,12,0,8,6,1,yes
12,2,1,1,0,0,3,3,23,11,21,11.333333,0,no
4,2,0,0,2,0,1,1,4,0,4,4,1,no
3,2,0,0,2,0,1,1,3,0,3,3,1,no
3,0,0,0,0,0,3,3,14,11,12,8.333333,0,no
4,4,0,0,0,0,1,1,4,0,4,4,0,no
3,0,0,0,0,0,1,1,3,0,3,3,0,no
3,3,0,0,0,0,2,2,4,1,3,2.5,0,no
4,4,0,0,0,0,1,1,4,0,4,4,0,no
10,0,2,2,0,1,2,2,10,0,7,5,0,no
6,1,1,1,1,0,1,1,6,0,6,6,0,no
3,2,0,0,0,0,1,1,3,0,3,3,0,no
5,3,0,0,0,0,1,1,5,0,5,5,0,no
22,1,5,2,0,1,1,1,22,0,22,22,0,no
3,0,0,0,0,0,1,1,3,0,3,3,0,no
6,0,1,1,0,0,1,1,6,0,6,6,0,no
3,0,0,0,0,0,1,1,3,0,3,3,0,no
3,0,0,0,0,0,1,1,3,0,3,3,0,no
30,1,5,2,2,6,1,1,30,0,30,30,0,no
3,0,0,0,0,0,1,1,3,0,3,3,0,no
3,1,0,0,0,0,1,1,3,0,3,3,0,no
3,2,0,0,0,0,1,1,3,0,3,3,0,no
3,1,0,0,0,0,1,1,3,0,3,3,0,no
3,1,0,0,0,0,1,1,3,0,3,3,0,no
3,1,2,0,1,0,1,1,3,0,3,3,0,no
6,1,1,1,1,0,1,1,6,0,6,6,0,no
3,0,0,0,0,0,1,1,3,0,3,3,0,no
22,1,4,2,2,4,1,1,22,0,22,22,0,no
4,1,0,0,0,0,1,1,4,0,4,4,0,no
3,0,0,0,0,0,1,1,3,0,3,3,0,no
3,0,0,0,0,0,1,1,3,0,3,3,0,no
3,1,0,0,0,0,1,1,3,0,3,3,0,no
3,2,0,0,0,0,1,1,3,0,3,3,0,no
0,2,0,0,1,0,1,1,0,0,0,0,0,no
0,3,0,0,1,0,1,1,0,0,0,0,0,no
0,1,0,0,1,0,1,1,0,0,0,0,0,no
0,3,0,0,1,0,1,1,0,0,0,0,0,no
0,0,0,0,1,0,1,1,0,0,0,0,0,no
0,1,0,0,1,0,1,1,0,0,0,0,0,no
0,0,0,0,1,0,1,1,0,0,0,0,0,no
0,0,0,0,1,0,1,1,0,0,0,0,0,no
0,0,0,0,1,0,1,1,0,0,0,0,0,no
40,4,1,1,1,3,1,1,40,0,40,40,0,no
44,3,4,1,6,1,1,1,44,0,44,44,0,yes
12,4,2,1,0,1,2,1,12,0,11,6,0,no
8,0,1,1,1,0,1,1,8,0,8,8,0,no
4,2,0,0,0,0,1,1,4,0,4,4,0,no
4,2,0,0,1,0,1,1,4,0,4,4,0,no
4,2,0,0,0,0,1,1,4,0,4,4,0,no
34,2,4,1,5,1,1,1,34,0,34,34,0,no
9,2,1,1,2,0,1,1,9,0,9,9,0,no
3,2,0,0,0,0,1,1,3,0,3,3,0,no
3,0,0,0,0,0,1,1,3,0,3,3,0,no
3,0,0,0,0,0,1,1,3,0,3,3,0,no
3,0,0,0,0,0,1,1,3,0,3,3,0,no
5,3,0,0,0,0,1,1,5,0,5,5,0,no
18,1,1,1,1,0,1,1,18,0,18,18,0,no
18,1,1,1,0,0,1,1,18,0,18,18,0,no
5,1,0,0,0,0,1,1,5,0,5,5,0,no
49,0,5,2,0,2,2,1,50,1,49,25.5,1,no
19,2,1,1,0,0,1,1,19,0,19,19,0,no
4,2,0,0,1,0,1,1,4,0,4,4,0,no
8,2,1,1,0,0,1,1,8,0,8,8,0,no
3,2,0,0,0,0,1,1,3,0,3,3,0,no
40,2,5,2,0,2,2,1,41,1,40,21,1,no
3,2,0,0,0,0,1,1,3,0,3,3,0,no
7,2,1,1,0,0,1,1,7,0,7,7,0,no
8,2,1,1,0,0,1,1,8,0,8,8,0,no
8,2,1,1,0,0,1,1,8,0,8,8,0,no
3,2,0,0,0,0,1,1,4,0,4,4,0,no
4,2,0,0,0,0,1,1,4,0,4,4,0,no
0,1,0,0,1,0,1,1,0,0,0,0,0,no
0,4,0,0,1,0,1,1,0,0,0,0,0,no
0,1,0,0,1,0,1,1,0,0,0,0,0,no
0,3,0,0,1,0,1,1,0,0,0,0,0,no
0,0,0,0,1,0,1,1,0,0,0,0,1,no
0,3,0,0,1,0,1,1,0,0,0,0,0,no
0,1,0,0,1,0,1,1,0,0,0,0,0,no
3,2,0,0,0,0,1,1,3,0,3,3,0,no
3,3,0,0,0,0,1,1,3,0,3,3,0,no
8,4,1,1,0,1,2,2,8,0,7,4,0,no
2,0,0,0,0,0,1,1,2,0,2,2,1,no
8,3,0,0,0,0,1,1,8,0,8,8,0,no
13,2,1,1,0,1,1,1,13,0,13,13,0,no
43,3,7,3,4,9,3,3,46,3,45,16.333333,1,no
4,1,0,0,1,1,1,1,4,0,4,4,0,no
18,3,3,3,0,0,1,1,18,0,18,18,0,no
3,1,0,0,0,0,1,1,3,0,3,3,0,no
42,3,4,2,1,3,2,2,43,1,42,22,1,no
9,0,2,1,1,0,1,1,9,0,9,9,0,no
5,1,0,0,0,1,3,3,8,3,7,3.666667,1,no
8,4,1,1,0,1,1,1,8,0,8,8,0,yes
31,5,6,3,3,3,3,3,34,3,33,12.333333,1,no
13,4,3,3,0,0,1,1,13,0,13,13,0,no
36,4,4,2,1,2,1,1,36,0,36,36,0,no
10,4,1,1,0,0,1,1,10,0,10,10,0,no
9,3,1,1,1,1,1,1,9,0,9,9,0,no
5,4,1,1,0,0,1,1,5,0,5,5,0,no
25,1,8,4,0,0,1,1,25,0,25,25,0,yes
39,3,1,1,0,3,3,2,43,4,42,15.666667,1,no
3,1,0,0,0,0,1,1,3,0,3,3,0,no
42,3,5,2,3,5,3,3,43,1,34,14.666667,1,yes
12,4,2,1,0,1,2,2,12,0,11,6,0,no
8,0,1,1,0,0,2,1,10,2,10,6,1,no
4,2,0,0,0,0,1,1,4,0,4,4,0,no
4,2,0,0,0,0,1,1,4,0,4,4,0,no
3,0,0,0,0,0,1,1,3,0,3,3,0,no
3,0,0,0,0,0,1,1,3,0,3,3,0,no
3,0,0,0,0,0,1,1,3,0,3,3,0,no
37,5,5,2,3,5,3,3,38,1,29,13,1,no
8,3,1,1,0,1,1,1,8,0,8,8,0,no
7,4,0,0,0,0,1,1,7,0,7,7,0,no
18,0,1,1,1,0,2,2,18,0,14,9,0,no
22,0,4,2,0,1,3,3,24,2,22,8.666667,1,no
6,0,1,1,2,0,1,1,6,0,6,6,0,no
41,0,6,3,2,4,3,3,42,1,36,14.333333,1,no
4,2,0,0,1,0,1,1,4,0,4,4,0,no
8,2,1,1,0,0,1,1,8,0,8,8,0,no
36,5,6,3,2,4,3,3,37,1,31,12.666667,1,no
8,3,1,1,0,1,1,1,8,0,8,8,0,no
14,4,3,2,0,1,2,2,15,1,14,8,0,no
7,4,1,1,1,0,1,1,7,0,7,7,0,no
0,4,0,0,0,0,1,1,0,0,0,0,0,no
7,3,1,1,1,0,1,1,7,0,7,7,0,no
0,3,0,0,0,0,1,1,0,0,0,0,0,no
7,3,1,1,1,0,1,1,7,0,7,7,0,no
0,3,0,0,0,0,1,1,0,0,0,0,0,no
7,3,1,1,1,0,1,1,7,0,7,7,0,no
0,3,0,0,0,0,1,1,0,0,0,0,0,no
7,4,1,1,1,0,1,1,7,0,7,7,0,no
0,4,0,0,0,0,1,1,0,0,0,0,0,no
4,1,0,0,0,1,1,1,4,0,4,4,0,no
3,1,0,0,0,0,1,1,3,0,3,3,0,no
7,5,1,1,1,0,1,1,7,0,7,7,0,no
0,5,0,0,0,0,1,1,0,0,0,0,0,no
7,4,1,1,1,0,1,1,7,0,7,7,0,no
0,4,0,0,0,0,1,1,0,0,0,0,0,no
7,5,1,1,1,0,1,1,7,0,7,7,0,no
0,5,0,0,0,0,1,1,0,0,0,0,0,no
7,4,1,1,1,0,1,1,7,0,7,7,0,no
0,4,0,0,0,0,1,1,0,0,0,0,0,no
7,4,1,1,1,0,1,1,7,0,7,7,0,no
0,4,0,0,0,0,1,1,0,0,0,0,0,no
7,3,1,1,1,0,1,1,7,0,7,7,0,no
0,3,0,0,0,0,1,1,0,0,0,0,0,no
22,5,2,1,1,1,2,2,23,1,22,12,1,no
21,7,2,1,0,0,1,1,21,0,21,21,0,no
5,3,0,0,1,1,1,1,5,0,5,5,0,no
16,4,2,1,0,0,1,1,16,0,16,16,0,no
7,4,1,1,0,0,1,1,7,0,7,7,0,no
8,4,0,0,1,0,1,1,8,0,8,8,0,no
